    1C
    1UUSER                                                              
    1UDATE              26.february.2021                                
    1UTIME              14:18:37                                        
    1UHOST                                                              
    1UPGM               CalculiX                                        
    1UVERSION           Version 2.16                             
    1UCOMPILETIME       Mo 25. Nov 18:56:47 CET 2019                    
    1UDIR                                                               
    1UDBN                                                               
    1UMAT    1EL                                                        
    2C                           126                                     1
 -1         1 5.00000E-02 0.00000E+00 0.00000E+00
 -1         2 0.00000E+00 0.00000E+00 0.00000E+00
 -1         3 0.00000E+00 0.00000E+00 5.00000E-02
 -1         4 5.00000E-02 0.00000E+00 5.00000E-02
 -1         5 5.00000E-02 3.00000E-01 0.00000E+00
 -1         6 0.00000E+00 3.00000E-01 0.00000E+00
 -1         7 0.00000E+00 3.00000E-01 5.00000E-02
 -1         8 5.00000E-02 3.00000E-01 5.00000E-02
 -1         9 0.00000E+00 0.00000E+00 1.00000E-01
 -1        10 5.00000E-02 0.00000E+00 1.00000E-01
 -1        11 0.00000E+00 3.00000E-01 1.00000E-01
 -1        12 5.00000E-02 3.00000E-01 1.00000E-01
 -1        13 0.00000E+00 0.00000E+00 1.50000E-01
 -1        14 5.00000E-02 0.00000E+00 1.50000E-01
 -1        15 0.00000E+00 3.00000E-01 1.50000E-01
 -1        16 5.00000E-02 3.00000E-01 1.50000E-01
 -1        17 0.00000E+00 0.00000E+00 2.00000E-01
 -1        18 5.00000E-02 0.00000E+00 2.00000E-01
 -1        19 0.00000E+00 3.00000E-01 2.00000E-01
 -1        20 5.00000E-02 3.00000E-01 2.00000E-01
 -1        21 0.00000E+00 0.00000E+00 2.50000E-01
 -1        22 5.00000E-02 0.00000E+00 2.50000E-01
 -1        23 0.00000E+00 3.00000E-01 2.50000E-01
 -1        24 5.00000E-02 3.00000E-01 2.50000E-01
 -1        25 0.00000E+00 0.00000E+00 3.00000E-01
 -1        26 5.00000E-02 0.00000E+00 3.00000E-01
 -1        27 0.00000E+00 3.00000E-01 3.00000E-01
 -1        28 5.00000E-02 3.00000E-01 3.00000E-01
 -1        29 0.00000E+00 0.00000E+00 3.50000E-01
 -1        30 5.00000E-02 0.00000E+00 3.50000E-01
 -1        31 0.00000E+00 3.00000E-01 3.50000E-01
 -1        32 5.00000E-02 3.00000E-01 3.50000E-01
 -1        33 0.00000E+00 0.00000E+00 4.00000E-01
 -1        34 5.00000E-02 0.00000E+00 4.00000E-01
 -1        35 0.00000E+00 3.00000E-01 4.00000E-01
 -1        36 5.00000E-02 3.00000E-01 4.00000E-01
 -1        37 0.00000E+00 0.00000E+00 4.50000E-01
 -1        38 5.00000E-02 0.00000E+00 4.50000E-01
 -1        39 0.00000E+00 3.00000E-01 4.50000E-01
 -1        40 5.00000E-02 3.00000E-01 4.50000E-01
 -1        41 0.00000E+00 0.00000E+00 5.00000E-01
 -1        42 5.00000E-02 0.00000E+00 5.00000E-01
 -1        43 0.00000E+00 3.00000E-01 5.00000E-01
 -1        44 5.00000E-02 3.00000E-01 5.00000E-01
 -1        45 0.00000E+00 0.00000E+00 5.50000E-01
 -1        46 5.00000E-02 0.00000E+00 5.50000E-01
 -1        47 0.00000E+00 3.00000E-01 5.50000E-01
 -1        48 5.00000E-02 3.00000E-01 5.50000E-01
 -1        49 0.00000E+00 0.00000E+00 6.00000E-01
 -1        50 5.00000E-02 0.00000E+00 6.00000E-01
 -1        51 0.00000E+00 3.00000E-01 6.00000E-01
 -1        52 5.00000E-02 3.00000E-01 6.00000E-01
 -1        53 0.00000E+00 0.00000E+00 6.50000E-01
 -1        54 5.00000E-02 0.00000E+00 6.50000E-01
 -1        55 0.00000E+00 3.00000E-01 6.50000E-01
 -1        56 5.00000E-02 3.00000E-01 6.50000E-01
 -1        57 0.00000E+00 0.00000E+00 7.00000E-01
 -1        58 5.00000E-02 0.00000E+00 7.00000E-01
 -1        59 0.00000E+00 3.00000E-01 7.00000E-01
 -1        60 5.00000E-02 3.00000E-01 7.00000E-01
 -1        61 0.00000E+00 0.00000E+00 7.50000E-01
 -1        62 5.00000E-02 0.00000E+00 7.50000E-01
 -1        63 0.00000E+00 3.00000E-01 7.50000E-01
 -1        64 5.00000E-02 3.00000E-01 7.50000E-01
 -1        65 0.00000E+00 0.00000E+00 8.00000E-01
 -1        66 5.00000E-02 0.00000E+00 8.00000E-01
 -1        67 0.00000E+00 3.00000E-01 8.00000E-01
 -1        68 5.00000E-02 3.00000E-01 8.00000E-01
 -1        69 0.00000E+00 0.00000E+00 8.50000E-01
 -1        70 5.00000E-02 0.00000E+00 8.50000E-01
 -1        71 0.00000E+00 3.00000E-01 8.50000E-01
 -1        72 5.00000E-02 3.00000E-01 8.50000E-01
 -1        73 0.00000E+00 0.00000E+00 9.00000E-01
 -1        74 5.00000E-02 0.00000E+00 9.00000E-01
 -1        75 0.00000E+00 3.00000E-01 9.00000E-01
 -1        76 5.00000E-02 3.00000E-01 9.00000E-01
 -1        77 0.00000E+00 0.00000E+00 9.50000E-01
 -1        78 5.00000E-02 0.00000E+00 9.50000E-01
 -1        79 0.00000E+00 3.00000E-01 9.50000E-01
 -1        80 5.00000E-02 3.00000E-01 9.50000E-01
 -1        81 0.00000E+00 0.00000E+00 1.00000E+00
 -1        82 5.00000E-02 0.00000E+00 1.00000E+00
 -1        83 0.00000E+00 3.00000E-01 1.00000E+00
 -1        84 5.00000E-02 3.00000E-01 1.00000E+00
 -1        85-5.00000E-02 0.00000E+00 0.00000E+00
 -1        86-5.00000E-02 0.00000E+00 5.00000E-02
 -1        87-5.00000E-02 3.00000E-01 0.00000E+00
 -1        88-5.00000E-02 3.00000E-01 5.00000E-02
 -1        89-5.00000E-02 0.00000E+00 1.00000E-01
 -1        90-5.00000E-02 3.00000E-01 1.00000E-01
 -1        91-5.00000E-02 0.00000E+00 1.50000E-01
 -1        92-5.00000E-02 3.00000E-01 1.50000E-01
 -1        93-5.00000E-02 0.00000E+00 2.00000E-01
 -1        94-5.00000E-02 3.00000E-01 2.00000E-01
 -1        95-5.00000E-02 0.00000E+00 2.50000E-01
 -1        96-5.00000E-02 3.00000E-01 2.50000E-01
 -1        97-5.00000E-02 0.00000E+00 3.00000E-01
 -1        98-5.00000E-02 3.00000E-01 3.00000E-01
 -1        99-5.00000E-02 0.00000E+00 3.50000E-01
 -1       100-5.00000E-02 3.00000E-01 3.50000E-01
 -1       101-5.00000E-02 0.00000E+00 4.00000E-01
 -1       102-5.00000E-02 3.00000E-01 4.00000E-01
 -1       103-5.00000E-02 0.00000E+00 4.50000E-01
 -1       104-5.00000E-02 3.00000E-01 4.50000E-01
 -1       105-5.00000E-02 0.00000E+00 5.00000E-01
 -1       106-5.00000E-02 3.00000E-01 5.00000E-01
 -1       107-5.00000E-02 0.00000E+00 5.50000E-01
 -1       108-5.00000E-02 3.00000E-01 5.50000E-01
 -1       109-5.00000E-02 0.00000E+00 6.00000E-01
 -1       110-5.00000E-02 3.00000E-01 6.00000E-01
 -1       111-5.00000E-02 0.00000E+00 6.50000E-01
 -1       112-5.00000E-02 3.00000E-01 6.50000E-01
 -1       113-5.00000E-02 0.00000E+00 7.00000E-01
 -1       114-5.00000E-02 3.00000E-01 7.00000E-01
 -1       115-5.00000E-02 0.00000E+00 7.50000E-01
 -1       116-5.00000E-02 3.00000E-01 7.50000E-01
 -1       117-5.00000E-02 0.00000E+00 8.00000E-01
 -1       118-5.00000E-02 3.00000E-01 8.00000E-01
 -1       119-5.00000E-02 0.00000E+00 8.50000E-01
 -1       120-5.00000E-02 3.00000E-01 8.50000E-01
 -1       121-5.00000E-02 0.00000E+00 9.00000E-01
 -1       122-5.00000E-02 3.00000E-01 9.00000E-01
 -1       123-5.00000E-02 0.00000E+00 9.50000E-01
 -1       124-5.00000E-02 3.00000E-01 9.50000E-01
 -1       125-5.00000E-02 0.00000E+00 1.00000E+00
 -1       126-5.00000E-02 3.00000E-01 1.00000E+00
 -3
    3C                            40                                     1
 -1         1    1    0    1
 -2         1         2         3         4         5         6         7         8
 -1         2    1    0    1
 -2         4         3         9        10         8         7        11        12
 -1         3    1    0    1
 -2        10         9        13        14        12        11        15        16
 -1         4    1    0    1
 -2        14        13        17        18        16        15        19        20
 -1         5    1    0    1
 -2        18        17        21        22        20        19        23        24
 -1         6    1    0    1
 -2        22        21        25        26        24        23        27        28
 -1         7    1    0    1
 -2        26        25        29        30        28        27        31        32
 -1         8    1    0    1
 -2        30        29        33        34        32        31        35        36
 -1         9    1    0    1
 -2        34        33        37        38        36        35        39        40
 -1        10    1    0    1
 -2        38        37        41        42        40        39        43        44
 -1        11    1    0    1
 -2        42        41        45        46        44        43        47        48
 -1        12    1    0    1
 -2        46        45        49        50        48        47        51        52
 -1        13    1    0    1
 -2        50        49        53        54        52        51        55        56
 -1        14    1    0    1
 -2        54        53        57        58        56        55        59        60
 -1        15    1    0    1
 -2        58        57        61        62        60        59        63        64
 -1        16    1    0    1
 -2        62        61        65        66        64        63        67        68
 -1        17    1    0    1
 -2        66        65        69        70        68        67        71        72
 -1        18    1    0    1
 -2        70        69        73        74        72        71        75        76
 -1        19    1    0    1
 -2        74        73        77        78        76        75        79        80
 -1        20    1    0    1
 -2        78        77        81        82        80        79        83        84
 -1        21    1    0    1
 -2         2        85        86         3         6        87        88         7
 -1        22    1    0    1
 -2         3        86        89         9         7        88        90        11
 -1        23    1    0    1
 -2         9        89        91        13        11        90        92        15
 -1        24    1    0    1
 -2        13        91        93        17        15        92        94        19
 -1        25    1    0    1
 -2        17        93        95        21        19        94        96        23
 -1        26    1    0    1
 -2        21        95        97        25        23        96        98        27
 -1        27    1    0    1
 -2        25        97        99        29        27        98       100        31
 -1        28    1    0    1
 -2        29        99       101        33        31       100       102        35
 -1        29    1    0    1
 -2        33       101       103        37        35       102       104        39
 -1        30    1    0    1
 -2        37       103       105        41        39       104       106        43
 -1        31    1    0    1
 -2        41       105       107        45        43       106       108        47
 -1        32    1    0    1
 -2        45       107       109        49        47       108       110        51
 -1        33    1    0    1
 -2        49       109       111        53        51       110       112        55
 -1        34    1    0    1
 -2        53       111       113        57        55       112       114        59
 -1        35    1    0    1
 -2        57       113       115        61        59       114       116        63
 -1        36    1    0    1
 -2        61       115       117        65        63       116       118        67
 -1        37    1    0    1
 -2        65       117       119        69        67       118       120        71
 -1        38    1    0    1
 -2        69       119       121        73        71       120       122        75
 -1        39    1    0    1
 -2        73       121       123        77        75       122       124        79
 -1        40    1    0    1
 -2        77       123       125        81        79       124       126        83
 -3
    1PSTEP                         1           1           3          
  100CL  101 2.10000E-01         126                     1    1           1
 -4  DISP        4    1
 -5  D1          1    2    1    0
 -5  D2          1    2    2    0
 -5  D3          1    2    3    0
 -5  ALL         1    2    0    0    1ALL
 -1         1 0.00000E+00 0.00000E+00 0.00000E+00
 -1         2 0.00000E+00 0.00000E+00 0.00000E+00
 -1         3 6.56441E-04 0.00000E+00 8.06959E-05
 -1         4 8.15562E-04 0.00000E+00-7.79322E-04
 -1         5 0.00000E+00 0.00000E+00 0.00000E+00
 -1         6 0.00000E+00 0.00000E+00 0.00000E+00
 -1         7 6.56533E-04 0.00000E+00 8.06427E-05
 -1         8 8.15354E-04 0.00000E+00-7.79258E-04
 -1         9 2.18637E-03 0.00000E+00 1.64317E-04
 -1        10 2.22253E-03 0.00000E+00-1.35550E-03
 -1        11 2.18637E-03 0.00000E+00 1.64315E-04
 -1        12 2.22229E-03 0.00000E+00-1.35545E-03
 -1        13 4.16617E-03 0.00000E+00 2.24681E-04
 -1        14 4.15474E-03 0.00000E+00-1.69143E-03
 -1        15 4.16624E-03 0.00000E+00 2.24688E-04
 -1        16 4.15454E-03 0.00000E+00-1.69138E-03
 -1        17 6.39362E-03 0.00000E+00 2.70884E-04
 -1        18 6.33641E-03 0.00000E+00-1.84493E-03
 -1        19 6.39360E-03 0.00000E+00 2.70877E-04
 -1        20 6.33611E-03 0.00000E+00-1.84491E-03
 -1        21 8.69571E-03 0.00000E+00 3.10600E-04
 -1        22 8.61074E-03 0.00000E+00-1.85535E-03
 -1        23 8.69577E-03 0.00000E+00 3.10617E-04
 -1        24 8.61051E-03 0.00000E+00-1.85536E-03
 -1        25 1.09567E-02 0.00000E+00 3.46972E-04
 -1        26 1.08553E-02 0.00000E+00-1.75492E-03
 -1        27 1.09568E-02 0.00000E+00 3.46993E-04
 -1        28 1.08551E-02 0.00000E+00-1.75490E-03
 -1        29 1.30868E-02 0.00000E+00 3.83584E-04
 -1        30 1.29760E-02 0.00000E+00-1.56228E-03
 -1        31 1.30868E-02 0.00000E+00 3.83574E-04
 -1        32 1.29758E-02 0.00000E+00-1.56228E-03
 -1        33 1.49979E-02 0.00000E+00 4.24341E-04
 -1        34 1.48842E-02 0.00000E+00-1.29314E-03
 -1        35 1.49979E-02 0.00000E+00 4.24319E-04
 -1        36 1.48840E-02 0.00000E+00-1.29317E-03
 -1        37 1.66239E-02 0.00000E+00 4.69521E-04
 -1        38 1.65145E-02 0.00000E+00-9.71412E-04
 -1        39 1.66240E-02 0.00000E+00 4.69507E-04
 -1        40 1.65142E-02 0.00000E+00-9.71458E-04
 -1        41 1.79325E-02 0.00000E+00 5.16347E-04
 -1        42 1.78320E-02 0.00000E+00-6.23439E-04
 -1        43 1.79326E-02 0.00000E+00 5.16336E-04
 -1        44 1.78318E-02 0.00000E+00-6.23468E-04
 -1        45 1.89153E-02 0.00000E+00 5.62096E-04
 -1        46 1.88258E-02 0.00000E+00-2.71299E-04
 -1        47 1.89154E-02 0.00000E+00 5.62097E-04
 -1        48 1.88256E-02 0.00000E+00-2.71272E-04
 -1        49 1.95785E-02 0.00000E+00 6.05008E-04
 -1        50 1.95017E-02 0.00000E+00 6.54706E-05
 -1        51 1.95785E-02 0.00000E+00 6.05045E-04
 -1        52 1.95014E-02 0.00000E+00 6.55306E-05
 -1        53 1.99444E-02 0.00000E+00 6.43470E-04
 -1        54 1.98817E-02 0.00000E+00 3.68212E-04
 -1        55 1.99444E-02 0.00000E+00 6.43509E-04
 -1        56 1.98815E-02 0.00000E+00 3.68165E-04
 -1        57 2.00652E-02 0.00000E+00 6.77647E-04
 -1        58 2.00127E-02 0.00000E+00 6.31701E-04
 -1        59 2.00654E-02 0.00000E+00 6.77675E-04
 -1        60 2.00126E-02 0.00000E+00 6.31607E-04
 -1        61 1.99768E-02 0.00000E+00 7.09392E-04
 -1        62 1.99305E-02 0.00000E+00 8.64732E-04
 -1        63 1.99768E-02 0.00000E+00 7.09461E-04
 -1        64 1.99302E-02 0.00000E+00 8.64761E-04
 -1        65 1.96953E-02 0.00000E+00 7.38294E-04
 -1        66 1.96567E-02 0.00000E+00 1.07023E-03
 -1        67 1.96953E-02 0.00000E+00 7.38309E-04
 -1        68 1.96566E-02 0.00000E+00 1.07014E-03
 -1        69 1.92428E-02 0.00000E+00 7.65017E-04
 -1        70 1.92139E-02 0.00000E+00 1.24156E-03
 -1        71 1.92429E-02 0.00000E+00 7.65078E-04
 -1        72 1.92138E-02 0.00000E+00 1.24162E-03
 -1        73 1.86599E-02 0.00000E+00 7.87245E-04
 -1        74 1.86404E-02 0.00000E+00 1.36408E-03
 -1        75 1.86599E-02 0.00000E+00 7.87303E-04
 -1        76 1.86403E-02 0.00000E+00 1.36395E-03
 -1        77 1.80134E-02 0.00000E+00 8.08667E-04
 -1        78 1.80111E-02 0.00000E+00 1.42874E-03
 -1        79 1.80138E-02 0.00000E+00 8.08595E-04
 -1        80 1.80108E-02 0.00000E+00 1.42847E-03
 -1        81 1.73648E-02 0.00000E+00 8.14963E-04
 -1        82 1.73351E-02 0.00000E+00 1.48700E-03
 -1        83 1.73644E-02 0.00000E+00 8.14881E-04
 -1        84 1.73354E-02 0.00000E+00 1.48729E-03
 -1        85 0.00000E+00 0.00000E+00 0.00000E+00
 -1        86 9.25741E-04 0.00000E+00 9.49280E-04
 -1        87 0.00000E+00 0.00000E+00 0.00000E+00
 -1        88 9.25765E-04 0.00000E+00 9.49317E-04
 -1        89 2.36040E-03 0.00000E+00 1.67524E-03
 -1        90 2.36054E-03 0.00000E+00 1.67532E-03
 -1        91 4.31267E-03 0.00000E+00 2.13243E-03
 -1        92 4.31281E-03 0.00000E+00 2.13245E-03
 -1        93 6.50808E-03 0.00000E+00 2.38210E-03
 -1        94 6.50820E-03 0.00000E+00 2.38211E-03
 -1        95 8.78272E-03 0.00000E+00 2.47384E-03
 -1        96 8.78292E-03 0.00000E+00 2.47387E-03
 -1        97 1.10163E-02 0.00000E+00 2.44828E-03
 -1        98 1.10165E-02 0.00000E+00 2.44828E-03
 -1        99 1.31203E-02 0.00000E+00 2.33070E-03
 -1       100 1.31204E-02 0.00000E+00 2.33068E-03
 -1       101 1.50078E-02 0.00000E+00 2.14296E-03
 -1       102 1.50079E-02 0.00000E+00 2.14294E-03
 -1       103 1.66142E-02 0.00000E+00 1.91007E-03
 -1       104 1.66144E-02 0.00000E+00 1.91004E-03
 -1       105 1.79079E-02 0.00000E+00 1.65437E-03
 -1       106 1.79080E-02 0.00000E+00 1.65434E-03
 -1       107 1.88813E-02 0.00000E+00 1.39273E-03
 -1       108 1.88814E-02 0.00000E+00 1.39267E-03
 -1       109 1.95411E-02 0.00000E+00 1.14044E-03
 -1       110 1.95413E-02 0.00000E+00 1.14036E-03
 -1       111 1.99085E-02 0.00000E+00 9.14262E-04
 -1       112 1.99086E-02 0.00000E+00 9.14271E-04
 -1       113 2.00329E-02 0.00000E+00 7.20064E-04
 -1       114 2.00331E-02 0.00000E+00 7.20162E-04
 -1       115 1.99486E-02 0.00000E+00 5.49673E-04
 -1       116 1.99487E-02 0.00000E+00 5.49640E-04
 -1       117 1.96710E-02 0.00000E+00 4.02035E-04
 -1       118 1.96709E-02 0.00000E+00 4.01954E-04
 -1       119 1.92275E-02 0.00000E+00 2.87931E-04
 -1       120 1.92275E-02 0.00000E+00 2.87860E-04
 -1       121 1.86522E-02 0.00000E+00 2.20905E-04
 -1       122 1.86522E-02 0.00000E+00 2.20882E-04
 -1       123 1.80274E-02 0.00000E+00 1.93956E-04
 -1       124 1.80274E-02 0.00000E+00 1.94022E-04
 -1       125 1.73251E-02 0.00000E+00 2.10977E-04
 -1       126 1.73252E-02 0.00000E+00 2.11063E-04
 -3
    1PSTEP                         2           1           3          
  100CL  101 2.10000E-01         126                     1    1           1
 -4  STRESS      6    1
 -5  SXX         1    4    1    1
 -5  SYY         1    4    2    2
 -5  SZZ         1    4    3    3
 -5  SXY         1    4    1    2
 -5  SYZ         1    4    2    3
 -5  SZX         1    4    3    1
 -1         1-3.52284E+03-3.59399E+03-8.18677E+03 2.38074E-04-3.20825E-04 2.38425E+03
 -1         2 4.33399E+02 3.91964E+02 8.55626E+02-5.70121E-05 1.35854E-04 2.02802E+03
 -1         3-8.27245E+00 2.21486E+02 7.42299E+02 4.71396E-02-2.71361E-02 7.13093E+02
 -1         4-1.23438E+03-2.29976E+03-6.30188E+03-1.06780E-01 3.13169E-02 7.09071E+02
 -1         5-3.52259E+03-3.59370E+03-8.18614E+03 2.37790E-04-3.20763E-04 2.38364E+03
 -1         6 4.33180E+02 3.91724E+02 8.55065E+02-5.69642E-05 1.35845E-04 2.02829E+03
 -1         7-9.55308E+00 2.20949E+02 7.41752E+02 4.71393E-02-2.71361E-02 7.13132E+02
 -1         8-1.23756E+03-2.30106E+03-6.30302E+03-1.06779E-01 3.13167E-02 7.09077E+02
 -1         9 4.04324E+01 2.64201E+02 8.34254E+02-2.83175E-03-7.60264E-04 7.52246E+02
 -1        10-1.30369E+03-1.70332E+03-4.31253E+03-1.19552E-01 2.79598E-02 4.06534E+02
 -1        11 3.85628E+01 2.63480E+02 8.33722E+02-2.83175E-03-7.60260E-04 7.52179E+02
 -1        12-1.30619E+03-1.70441E+03-4.31365E+03-1.19551E-01 2.79595E-02 4.06734E+02
 -1        13 4.67954E+01 2.55044E+02 8.05538E+02 3.37034E-02 3.59650E-03 6.07281E+02
 -1        14-6.25609E+02-8.17372E+02-2.08370E+03-1.03584E-01 2.78220E-02 4.01671E+02
 -1        15 4.49363E+01 2.54241E+02 8.04714E+02 3.37031E-02 3.59650E-03 6.07328E+02
 -1        16-6.28600E+02-8.18703E+02-2.08513E+03-1.03583E-01 2.78218E-02 4.01748E+02
 -1        17 3.49217E+01 2.45191E+02 7.86528E+02-9.15022E-03-3.39589E-03 4.83712E+02
 -1        18-2.52155E+02-2.06503E+02-4.33480E+02-1.50713E-01 1.26240E-02 3.41004E+02
 -1        19 3.27124E+01 2.44257E+02 7.85626E+02-9.15013E-03-3.39589E-03 4.83767E+02
 -1        20-2.55286E+02-2.07934E+02-4.35111E+02-1.50711E-01 1.26238E-02 3.41076E+02
 -1        21 2.81257E+01 2.35411E+02 7.60648E+02 3.36954E-02 9.24045E-03 3.77523E+02
 -1        22 6.01709E+01 2.67705E+02 8.37344E+02-1.21192E-01-4.13802E-03 3.05993E+02
 -1        23 2.58608E+01 2.34477E+02 7.59802E+02 3.36951E-02 9.24047E-03 3.77656E+02
 -1        24 5.69463E+01 2.66316E+02 8.35941E+02-1.21190E-01-4.13812E-03 3.06122E+02
 -1        25 2.63351E+01 2.23475E+02 7.21455E+02 4.31145E-02 1.06402E-02 3.05140E+02
 -1        26 3.03250E+02 6.32119E+02 1.81795E+03-9.37877E-02 9.42590E-03 2.82645E+02
 -1        27 2.42725E+01 2.22553E+02 7.20445E+02 4.31141E-02 1.06401E-02 3.05114E+02
 -1        28 3.00409E+02 6.30912E+02 1.81676E+03-9.37865E-02 9.42587E-03 2.82664E+02
 -1        29 1.91709E+01 2.09448E+02 6.80378E+02 9.31822E-03-4.91896E-03 2.41969E+02
 -1        30 4.86376E+02 9.16102E+02 2.59280E+03-1.23156E-01-3.06224E-04 2.54753E+02
 -1        31 1.70865E+01 2.08496E+02 6.79291E+02 9.31813E-03-4.91895E-03 2.41907E+02
 -1        32 4.83475E+02 9.14793E+02 2.59132E+03-1.23154E-01-3.06177E-04 2.54686E+02
 -1        33 1.04243E+01 1.94702E+02 6.38468E+02 9.12137E-03-1.13828E-02 1.66789E+02
 -1        34 6.15925E+02 1.11959E+03 3.15181E+03-1.33499E-01-1.75251E-02 2.05182E+02
 -1        35 8.25167E+00 1.93764E+02 6.37518E+02 9.12127E-03-1.13828E-02 1.66830E+02
 -1        36 6.12853E+02 1.11822E+03 3.15029E+03-1.33497E-01-1.75250E-02 2.05185E+02
 -1        37 7.84395E+00 1.78378E+02 5.85279E+02 2.29773E-02-7.08326E-03 9.03468E+01
 -1        38 6.99983E+02 1.23651E+03 3.46366E+03-1.18747E-01-2.37067E-02 1.42916E+02
 -1        39 5.76497E+00 1.77500E+02 5.84438E+02 2.29771E-02-7.08324E-03 9.03817E+01
 -1        40 6.97055E+02 1.23527E+03 3.46243E+03-1.18746E-01-2.37066E-02 1.42912E+02
 -1        41 1.13878E+01 1.60097E+02 5.19903E+02 2.65248E-02-5.49797E-03 2.67467E+01
 -1        42 7.40600E+02 1.27363E+03 3.54806E+03-1.10106E-01-1.51451E-02 8.17465E+01
 -1        43 9.49961E+00 1.59305E+02 5.19153E+02 2.65246E-02-5.49796E-03 2.67671E+01
 -1        44 7.37925E+02 1.27258E+03 3.54724E+03-1.10105E-01-1.51451E-02 8.17012E+01
 -1        45 1.57702E+01 1.40918E+02 4.51319E+02 2.35819E-02 2.59792E-04-2.43220E+01
 -1        46 7.36083E+02 1.24113E+03 3.44135E+03-1.21512E-01 1.40757E-02 2.71224E+01
 -1        47 1.38769E+01 1.40165E+02 4.50707E+02 2.35817E-02 2.59799E-04-2.42185E+01
 -1        48 7.33260E+02 1.24004E+03 3.44054E+03-1.21510E-01 1.40757E-02 2.71654E+01
 -1        49 2.12718E+01 1.23175E+02 3.86922E+02 1.37872E-02 1.89454E-02-6.88389E+01
 -1        50 6.95214E+02 1.14803E+03 3.16562E+03-1.28588E-01 3.12184E-02-2.27302E+01
 -1        51 1.92925E+01 1.22374E+02 3.86237E+02 1.37871E-02 1.89454E-02-6.86820E+01
 -1        52 6.92075E+02 1.14659E+03 3.16393E+03-1.28586E-01 3.12182E-02-2.25578E+01
 -1        53 3.55719E+01 1.12394E+02 3.36911E+02 4.28841E-03 2.02046E-02-9.05645E+01
 -1        54 6.43802E+02 1.02390E+03 2.79556E+03-9.16914E-02-2.46134E-02-5.55768E+01
 -1        55 3.41705E+01 1.11782E+02 3.36275E+02 4.28840E-03 2.02046E-02-9.04574E+01
 -1        56 6.41451E+02 1.02269E+03 2.79386E+03-9.16905E-02-2.46132E-02-5.55910E+01
 -1        57 4.51575E+01 1.05893E+02 3.06126E+02 7.76974E-02 1.46063E-02-8.60629E+01
 -1        58 5.81397E+02 9.03437E+02 2.45027E+03-4.53403E-02-4.85756E-02-6.61875E+01
 -1        59 4.38205E+01 1.05357E+02 3.05684E+02 7.76968E-02 1.46062E-02-8.63237E+01
 -1        60 5.79008E+02 9.02517E+02 2.44959E+03-4.53396E-02-4.85754E-02-6.67191E+01
 -1        61 4.89102E+01 1.01219E+02 2.87344E+02 1.56950E-02 3.55040E-02-8.49436E+01
 -1        62 5.18569E+02 8.00710E+02 2.16639E+03-1.41980E-01 1.50625E-02-7.29917E+01
 -1        63 4.71033E+01 1.00426E+02 2.86507E+02 1.56949E-02 3.55039E-02-8.50608E+01
 -1        64 5.15291E+02 7.99324E+02 2.16503E+03-1.41978E-01 1.50627E-02-7.31090E+01
 -1        65 7.22460E+01 1.06958E+02 2.83668E+02 6.95876E-03 7.70285E-03-1.02110E+02
 -1        66 4.73762E+02 7.02466E+02 1.87995E+03-4.25681E-02-4.31015E-02-8.65020E+01
 -1        67 7.21573E+01 1.06910E+02 2.83596E+02 6.95878E-03 7.70285E-03-1.01974E+02
 -1        68 4.72803E+02 7.02101E+02 1.87969E+03-4.25680E-02-4.31015E-02-8.65833E+01
 -1        69 7.97582E+01 1.04536E+02 2.68550E+02 6.29181E-02 3.16763E-02-1.26785E+02
 -1        70 4.05245E+02 5.66854E+02 1.49218E+03-6.68325E-02 3.33030E-02-1.03068E+02
 -1        71 7.91036E+01 1.04312E+02 2.68463E+02 6.29179E-02 3.16763E-02-1.26693E+02
 -1        72 4.02430E+02 5.65595E+02 1.49079E+03-6.68317E-02 3.33030E-02-1.03039E+02
 -1        73 9.34378E+01 1.06127E+02 2.60477E+02-3.12893E-02 2.97097E-02-1.33797E+02
 -1        74 2.75686E+02 3.73616E+02 9.73250E+02-3.44628E-02-6.46813E-02-7.99237E+01
 -1        75 9.27387E+01 1.05650E+02 2.59586E+02-3.12891E-02 2.97095E-02-1.33656E+02
 -1        76 2.74856E+02 3.72815E+02 9.71404E+02-3.44628E-02-6.46807E-02-8.07408E+01
 -1        77 3.88377E+01 6.32558E+01 1.72021E+02 1.61632E-01-3.67362E-02-9.37196E+01
 -1        78 3.22004E+02 3.10069E+02 7.13393E+02-1.52294E-01-1.37863E-01-1.03117E+02
 -1        79 3.71993E+01 6.23623E+01 1.70683E+02 1.61632E-01-3.67365E-02-9.47574E+01
 -1        80 3.16345E+02 3.08194E+02 7.12797E+02-1.52292E-01-1.37863E-01-1.03167E+02
 -1        81 1.47449E+02 9.03451E+01 1.54188E+02-2.04950E-01-4.21896E-02-3.29638E+01
 -1        82 1.90610E+01 1.73742E+02 5.61152E+02 1.61282E-01 1.50879E-01-1.58516E+01
 -1        83 1.48468E+02 9.07610E+01 1.54547E+02-2.04951E-01-4.21885E-02-3.48411E+01
 -1        84 2.92651E+01 1.79609E+02 5.70530E+02 1.61286E-01 1.50884E-01-1.28039E+01
 -1        85 4.47251E+03 4.37904E+03 1.05458E+04 7.87388E-05 4.05247E-05 3.02398E+03
 -1        86 1.17310E+03 2.72840E+03 8.14780E+03 1.21310E-02 1.93400E-02 1.05251E+03
 -1        87 4.47269E+03 4.37920E+03 1.05462E+04 7.87377E-05 4.05260E-05 3.02407E+03
 -1        88 1.17404E+03 2.72891E+03 8.14860E+03 1.21310E-02 1.93400E-02 1.05245E+03
 -1        89 1.28036E+03 2.16463E+03 6.06804E+03 7.24175E-02 4.34000E-02 6.49910E+02
 -1        90 1.27881E+03 2.16395E+03 6.06733E+03 7.24170E-02 4.33999E-02 6.49838E+02
 -1        91 6.89043E+02 1.32102E+03 3.77073E+03 7.16700E-02 1.16864E-02 5.79578E+02
 -1        92 6.88075E+02 1.32051E+03 3.76997E+03 7.16697E-02 1.16864E-02 5.79503E+02
 -1        93 3.00823E+02 6.95530E+02 2.03719E+03 6.26452E-02 2.51488E-03 4.22080E+02
 -1        94 2.99353E+02 6.94906E+02 2.03658E+03 6.26448E-02 2.51490E-03 4.22159E+02
 -1        95-1.98116E+01 2.01697E+02 6.96711E+02 1.03944E-01 1.33933E-02 2.96734E+02
 -1        96-2.12743E+01 2.01065E+02 6.96069E+02 1.03944E-01 1.33933E-02 2.96828E+02
 -1        97-2.61341E+02-1.84517E+02-3.52476E+02 9.61231E-02 2.91293E-04 2.05887E+02
 -1        98-2.62570E+02-1.85101E+02-3.53191E+02 9.61225E-02 2.91267E-04 2.05842E+02
 -1        99-4.59580E+02-4.99808E+02-1.20230E+03 6.50355E-02-7.85797E-03 1.34653E+02
 -1       100-4.60813E+02-5.00367E+02-1.20292E+03 6.50351E-02-7.85798E-03 1.34616E+02
 -1       101-6.09862E+02-7.38555E+02-1.84237E+03 7.37513E-02-1.06106E-02 6.54923E+01
 -1       102-6.11234E+02-7.39154E+02-1.84299E+03 7.37508E-02-1.06106E-02 6.55548E+01
 -1       103-6.98102E+02-8.89344E+02-2.25174E+03 8.31763E-02-1.15528E-02 6.66573E+00
 -1       104-6.99400E+02-8.89919E+02-2.25235E+03 8.31758E-02-1.15527E-02 6.70195E+00
 -1       105-7.27888E+02-9.60716E+02-2.45674E+03 7.35601E-02-1.66087E-02-3.33550E+01
 -1       106-7.28969E+02-9.61229E+02-2.45736E+03 7.35598E-02-1.66087E-02-3.33235E+01
 -1       107-7.12953E+02-9.65831E+02-2.48795E+03 6.94138E-02-2.94532E-02-5.73965E+01
 -1       108-7.14023E+02-9.66348E+02-2.48860E+03 6.94135E-02-2.94531E-02-5.72296E+01
 -1       109-6.58684E+02-9.06387E+02-2.34585E+03 6.83985E-02-3.77738E-02-7.54476E+01
 -1       110-6.59688E+02-9.06733E+02-2.34600E+03 6.83981E-02-3.77737E-02-7.51919E+01
 -1       111-5.73203E+02-7.98580E+02-2.07573E+03 4.01627E-02 4.82584E-03-8.00305E+01
 -1       112-5.73563E+02-7.98508E+02-2.07514E+03 4.01626E-02 4.82591E-03-7.98758E+01
 -1       113-4.92857E+02-6.92336E+02-1.80518E+03 8.93752E-02 4.99992E-02-6.88776E+01
 -1       114-4.93198E+02-6.92539E+02-1.80551E+03 8.93750E-02 4.99990E-02-6.91263E+01
 -1       115-4.24654E+02-6.01011E+02-1.57125E+03 2.77707E-02-1.68664E-02-6.30963E+01
 -1       116-4.25316E+02-6.01531E+02-1.57231E+03 2.77707E-02-1.68663E-02-6.31571E+01
 -1       117-3.22908E+02-4.80766E+02-1.27466E+03-3.61060E-02-4.11501E-02-7.11820E+01
 -1       118-3.22087E+02-4.80461E+02-1.27447E+03-3.61062E-02-4.11502E-02-7.09522E+01
 -1       119-2.14276E+02-3.24818E+02-8.65924E+02 6.17418E-03-3.63199E-02-9.61586E+01
 -1       120-2.12946E+02-3.24167E+02-8.65091E+02 6.17411E-03-3.63200E-02-9.56387E+01
 -1       121-7.93613E+01-1.49500E+02-4.18388E+02 1.06594E-03-1.17689E-02-1.01584E+02
 -1       122-7.97150E+01-1.49468E+02-4.17929E+02 1.06596E-03-1.17689E-02-1.01435E+02
 -1       123-1.08329E+02-4.96251E+01-5.66167E+01-2.53368E-02 3.40558E-02-1.50609E+02
 -1       124-1.04170E+02-4.77040E+01-5.43705E+01-2.53369E-02 3.40561E-02-1.50820E+02
 -1       125 5.77227E+02 3.01237E+02 4.29184E+02 6.92309E-02 4.40334E-02-3.02855E+02
 -1       126 5.71519E+02 2.98843E+02 4.26899E+02 6.92296E-02 4.40324E-02-3.02820E+02
 -3
    1PSTEP                         3           1           3          
  100CL  101 2.10000E-01         126                     1    1           1
 -4  TOSTRAIN    6    1
 -5  EXX         1    4    1    1
 -5  EYY         1    4    2    2
 -5  EZZ         1    4    3    3
 -5  EXY         1    4    1    2
 -5  EYZ         1    4    2    3
 -5  EZX         1    4    3    1
 -1         1-2.55536E-05-2.77512E-14-1.53571E-02 4.88733E-10 2.14634E-13 8.15546E-03
 -1         2-2.65149E-05-1.53249E-15 1.67480E-03-2.26847E-10-2.49753E-13 6.56425E-03
 -1         3-9.63110E-04 4.87555E-15 1.90107E-03 1.55401E-07-8.54385E-08 2.26249E-03
 -1         4 3.31507E-03 1.52981E-13-1.32166E-02-3.49238E-07 9.74958E-08 2.66428E-03
 -1         5-2.55437E-05-2.77512E-14-1.53559E-02 4.88345E-10 2.14638E-13 8.15338E-03
 -1         6-2.65119E-05-1.53249E-15 1.67376E-03-2.26784E-10-2.49753E-13 6.56518E-03
 -1         7-9.65439E-04 4.87555E-15 1.90104E-03 1.55401E-07-8.54386E-08 2.26258E-03
 -1         8 3.30901E-03 1.52981E-13-1.32161E-02-3.49235E-07 9.74964E-08 2.66419E-03
 -1         9-9.26178E-04-4.40362E-14 2.05695E-03-8.87002E-09-2.56596E-09 2.34881E-03
 -1        10 1.17507E-03 2.68848E-13-8.51530E-03-3.92012E-07 7.98225E-08 1.64826E-03
 -1        11-9.29912E-04-4.40362E-14 2.05755E-03-8.87001E-09-2.56597E-09 2.34848E-03
 -1        12 1.17047E-03 2.68848E-13-8.51538E-03-3.92010E-07 7.98225E-08 1.64879E-03
 -1        13-8.49399E-04-1.77241E-14 1.95094E-03 1.09118E-07 1.57763E-08 1.86323E-03
 -1        14 5.02223E-04 1.70597E-13-4.03462E-03-3.40296E-07 7.78429E-08 1.49728E-03
 -1        15-8.52829E-04-1.77241E-14 1.95087E-03 1.09118E-07 1.57763E-08 1.86327E-03
 -1        16 4.96828E-04 1.70597E-13-4.03496E-03-3.40294E-07 7.78431E-08 1.49735E-03
 -1        17-8.22407E-04-4.94507E-14 1.88483E-03-2.91467E-08-1.22224E-08 1.45539E-03
 -1        18-2.49017E-04 4.06397E-13-6.44376E-04-4.91399E-07 2.03068E-08 1.13100E-03
 -1        19-8.26573E-04-4.94507E-14 1.88495E-03-2.91466E-08-1.22224E-08 1.45540E-03
 -1        20-2.54564E-04 4.06397E-13-6.45017E-04-4.91396E-07 2.03069E-08 1.13104E-03
 -1        21-7.81233E-04-2.89350E-14 1.80213E-03 1.08056E-07 3.46585E-08 1.11354E-03
 -1        22-7.59672E-04 2.22652E-13 1.92201E-03-3.92946E-07-3.04372E-08 8.77110E-04
 -1        23-7.85605E-04-2.89350E-14 1.80244E-03 1.08056E-07 3.46586E-08 1.11377E-03
 -1        24-7.65684E-04 2.22652E-13 1.92199E-03-3.92943E-07-3.04376E-08 8.77276E-04
 -1        25-7.25972E-04 9.56152E-16 1.69451E-03 1.38449E-07 4.03328E-08 8.88857E-04
 -1        26-1.14191E-03 1.18924E-13 3.88837E-03-3.05858E-07 1.76571E-08 7.01499E-04
 -1        27-7.29680E-04 9.56152E-16 1.69422E-03 1.38448E-07 4.03328E-08 8.88635E-04
 -1        28-1.14724E-03 1.18924E-13 3.88844E-03-3.05857E-07 1.76571E-08 7.01341E-04
 -1        29-6.85165E-04-3.65957E-14 1.59163E-03 3.08119E-08-1.47916E-08 6.97071E-04
 -1        30-1.45783E-03 2.56890E-13 5.44123E-03-3.99803E-07-1.65115E-08 5.51484E-04
 -1        31-6.88838E-04-3.65957E-14 1.59117E-03 3.08118E-08-1.47916E-08 6.96750E-04
 -1        32-1.46299E-03 2.56890E-13 5.44068E-03-3.99801E-07-1.65112E-08 5.51097E-04
 -1        33-6.45964E-04-3.92030E-14 1.48714E-03 3.07963E-08-3.58917E-08 4.68479E-04
 -1        34-1.68291E-03 3.10633E-13 6.55385E-03-4.31450E-07-7.12512E-08 3.75817E-04
 -1        35-6.49998E-04-3.92030E-14 1.48711E-03 3.07962E-08-3.58917E-08 4.68479E-04
 -1        36-1.68846E-03 3.10633E-13 6.55340E-03-4.31447E-07-7.12513E-08 3.75657E-04
 -1        37-5.83880E-04-3.04476E-14 1.35326E-03 7.51738E-08-2.08361E-08 2.37873E-04
 -1        38-1.77450E-03 2.37586E-13 7.15582E-03-3.83359E-07-8.73639E-08 2.00827E-04
 -1        39-5.87809E-04-3.04476E-14 1.35338E-03 7.51735E-08-2.08361E-08 2.37871E-04
 -1        40-1.78000E-03 2.37586E-13 7.15588E-03-3.83357E-07-8.73641E-08 2.00655E-04
 -1        41-5.01255E-04-2.16370E-14 1.19088E-03 8.64511E-08-1.58796E-08 4.87225E-05
 -1        42-1.75144E-03 1.93455E-13 7.29473E-03-3.56465E-07-5.68808E-08 5.58412E-05
 -1        43-5.04835E-04-2.16370E-14 1.19102E-03 8.64508E-08-1.58796E-08 4.87044E-05
 -1        44-1.75676E-03 1.93455E-13 7.29545E-03-3.56463E-07-5.68808E-08 5.55605E-05
 -1        45-4.17988E-04-3.15955E-14 1.02450E-03 7.64672E-08 2.19509E-09-1.02531E-04
 -1        46-1.65296E-03 2.39642E-13 7.05409E-03-3.95421E-07 3.87955E-08-5.80553E-05
 -1        47-4.21724E-04-3.15955E-14 1.02497E-03 7.64669E-08 2.19506E-09-1.02264E-04
 -1        48-1.65862E-03 2.39642E-13 7.05498E-03-3.95419E-07 3.87957E-08-5.80234E-05
 -1        49-3.38661E-04-3.50890E-14 8.68780E-04 4.40241E-08 6.21025E-08-2.36082E-04
 -1        50-1.47857E-03 2.91257E-13 6.47297E-03-4.18721E-07 9.61703E-08-1.58627E-04
 -1        51-3.42515E-04-3.50890E-14 8.69164E-04 4.40240E-08 6.21026E-08-2.35621E-04
 -1        52-1.48412E-03 2.91257E-13 6.47222E-03-4.18718E-07 9.61701E-08-1.58131E-04
 -1        53-2.55267E-04-2.14406E-14 7.39437E-04 1.35269E-08 6.56927E-08-2.99125E-04
 -1        54-1.23976E-03 1.40411E-13 5.69237E-03-2.97410E-07-8.10684E-08-2.16392E-04
 -1        55-2.57834E-04-2.14406E-14 7.39354E-04 1.35269E-08 6.56928E-08-2.98794E-04
 -1        56-1.24349E-03 1.40411E-13 5.69083E-03-2.97409E-07-8.10688E-08-2.16460E-04
 -1        57-2.03409E-04 8.10161E-14 6.60103E-04 2.52413E-07 4.75021E-08-2.79935E-04
 -1        58-1.05109E-03-1.68559E-15 4.97828E-03-1.47292E-07-1.57188E-07-2.17976E-04
 -1        59-2.06034E-04 8.10161E-14 6.60407E-04 2.52412E-07 4.75022E-08-2.80786E-04
 -1        60-1.05588E-03-1.68559E-15 4.97906E-03-1.47291E-07-1.57188E-07-2.19696E-04
 -1        61-1.77169E-04-2.30274E-14 6.14136E-04 5.13424E-08 1.15104E-07-2.73142E-04
 -1        62-9.22328E-04 2.99602E-13 4.40178E-03-4.61035E-07 5.00114E-08-2.18077E-04
 -1        63-1.80476E-04-2.30274E-14 6.14005E-04 5.13423E-08 1.15104E-07-2.73516E-04
 -1        64-9.28476E-04 2.99602E-13 4.40188E-03-4.61032E-07 5.00115E-08-2.18443E-04
 -1        65-1.21540E-04-1.83517E-14 5.83911E-04 2.27894E-08 2.48947E-08-3.26614E-04
 -1        66-7.49890E-04 3.13587E-14 3.80154E-03-1.39276E-07-1.38477E-07-2.48334E-04
 -1        67-1.21665E-04-1.83517E-14 5.83829E-04 2.27894E-08 2.48947E-08-3.26167E-04
 -1        68-7.51834E-04 3.13587E-14 3.80189E-03-1.39276E-07-1.38477E-07-2.48582E-04
 -1        69-9.11566E-05 4.56470E-14 5.43563E-04 2.05481E-07 1.00976E-07-4.05426E-04
 -1        70-5.33260E-04 3.84001E-14 2.99485E-03-2.16031E-07 1.09843E-07-2.99116E-04
 -1        71-9.25651E-05 4.56470E-14 5.44002E-04 2.05481E-07 1.00976E-07-4.05112E-04
 -1        72-5.38318E-04 3.84001E-14 2.99442E-03-2.16030E-07 1.09843E-07-2.98988E-04
 -1        73-5.23717E-05-4.20813E-14 5.12154E-04-1.00500E-07 9.76088E-08-4.27724E-04
 -1        74-3.24397E-04 6.50442E-14 1.94594E-03-1.14494E-07-2.08461E-07-2.32405E-04
 -1        75-5.30769E-05-4.20813E-14 5.10794E-04-1.00500E-07 9.76084E-08-4.27279E-04
 -1        76-3.24565E-04 6.50442E-14 1.94263E-03-1.14494E-07-2.08460E-07-2.35095E-04
 -1        77-8.69569E-05 1.43316E-13 3.60987E-04 5.23611E-07-1.25849E-07-2.98962E-04
 -1        78 3.01466E-05 3.43157E-13 1.31511E-03-5.00566E-07-4.41042E-07-3.17898E-04
 -1        79-8.94747E-05 1.43316E-13 3.59630E-04 5.23611E-07-1.25850E-07-3.02320E-04
 -1        80 1.78570E-05 3.43157E-13 1.31925E-03-5.00562E-07-4.41045E-07-3.17852E-04
 -1        81 1.81953E-04 2.28019E-13 2.09950E-04-6.67629E-07-1.28548E-07-1.06119E-04
 -1        82-5.03935E-04 1.09248E-13 1.25715E-03 5.30720E-07 4.82774E-07-2.80330E-05
 -1        83 1.83775E-04 2.28019E-13 2.09919E-04-6.67630E-07-1.28543E-07-1.12240E-04
 -1        84-4.89557E-04 1.09248E-13 1.26824E-03 5.30725E-07 4.82780E-07-1.81766E-05
 -1        85-2.74762E-05 2.40337E-16 1.93092E-02 2.09198E-10 4.74893E-13 9.25724E-03
 -1        86-5.24129E-03-5.10964E-15 1.71655E-02 3.78290E-08 6.24086E-08 2.90696E-03
 -1        87-2.74801E-05 2.40337E-16 1.93099E-02 2.09208E-10 4.74893E-13 9.25747E-03
 -1        88-5.23988E-03-5.10964E-15 1.71664E-02 3.78290E-08 6.24087E-08 2.90676E-03
 -1        89-3.02742E-03 1.16945E-13 1.24821E-02 2.30307E-07 1.45834E-07 1.58759E-03
 -1        90-3.03029E-03 1.16945E-13 1.24820E-02 2.30306E-07 1.45834E-07 1.58728E-03
 -1        91-2.20102E-03 1.05286E-13 7.95531E-03 2.31050E-07 4.64181E-08 1.46518E-03
 -1        92-2.20249E-03 1.05286E-13 7.95452E-03 2.31050E-07 4.64180E-08 1.46491E-03
 -1        93-1.39580E-03 6.17872E-14 4.41966E-03 2.03056E-07 1.66945E-08 1.11471E-03
 -1        94-1.39858E-03 6.17872E-14 4.41973E-03 2.03056E-07 1.66947E-08 1.11485E-03
 -1        95-8.02794E-04 2.11308E-13 1.67872E-03 3.35643E-07 5.79787E-08 8.55288E-04
 -1        96-8.05525E-04 2.11308E-13 1.67871E-03 3.35642E-07 5.79789E-08 8.55475E-04
 -1        97-3.10034E-04 1.83118E-13-4.88916E-04 3.12249E-07 1.40755E-08 6.79081E-04
 -1        98-3.12119E-04 1.83118E-13-4.89360E-04 3.12249E-07 1.40753E-08 6.78867E-04
 -1        99 8.74967E-05 7.78855E-14-2.25060E-03 2.12365E-07-1.73604E-08 5.32163E-04
 -1       100 8.53183E-05 7.78855E-14-2.25083E-03 2.12365E-07-1.73605E-08 5.31965E-04
 -1       101 3.90986E-04 1.02447E-13-3.58519E-03 2.40953E-07-2.63536E-08 3.52180E-04
 -1       102 3.88465E-04 1.02447E-13-3.58525E-03 2.40952E-07-2.63535E-08 3.52302E-04
 -1       103 6.06738E-04 1.35977E-13-4.45125E-03 2.71558E-07-2.99281E-08 1.68286E-04
 -1       104 6.04382E-04 1.35977E-13-4.45137E-03 2.71558E-07-2.99281E-08 1.68341E-04
 -1       105 7.48934E-04 1.11654E-13-4.90089E-03 2.40472E-07-4.88423E-08 1.94109E-05
 -1       106 7.47087E-04 1.11654E-13-4.90125E-03 2.40472E-07-4.88423E-08 1.94784E-05
 -1       107 8.16983E-04 1.09720E-13-4.99078E-03 2.27342E-07-9.24889E-08-9.18574E-05
 -1       108 8.15174E-04 1.09720E-13-4.99119E-03 2.27342E-07-9.24889E-08-9.13366E-05
 -1       109 8.01248E-04 1.03526E-13-4.71867E-03 2.23720E-07-1.20978E-07-1.88317E-04
 -1       110 7.99092E-04 1.03526E-13-4.71800E-03 2.23719E-07-1.20978E-07-1.87510E-04
 -1       111 7.29223E-04 1.82830E-14-4.18173E-03 1.30528E-07 1.65683E-08-2.35763E-04
 -1       112 7.27819E-04 1.82830E-14-4.18002E-03 1.30528E-07 1.65684E-08-2.35270E-04
 -1       113 6.44272E-04 1.98189E-13-3.63843E-03 2.90636E-07 1.63456E-07-2.22186E-04
 -1       114 6.43816E-04 1.98189E-13-3.63885E-03 2.90636E-07 1.63455E-07-2.23005E-04
 -1       115 5.67989E-04-7.59728E-15-3.16793E-03 9.01091E-08-5.53181E-08-2.18552E-04
 -1       116 5.67524E-04-7.59728E-15-3.16971E-03 9.01090E-08-5.53183E-08-2.18760E-04
 -1       117 5.06810E-04 3.83400E-14-2.58737E-03-1.18337E-07-1.33335E-07-2.53398E-04
 -1       118 5.08504E-04 3.83400E-14-2.58775E-03-1.18338E-07-1.33335E-07-2.52661E-04
 -1       119 3.50947E-04-4.98972E-16-1.75720E-03 1.88949E-08-1.18362E-07-3.33617E-04
 -1       120 3.53187E-04-4.98972E-16-1.75663E-03 1.88946E-08-1.18362E-07-3.31938E-04
 -1       121 2.19654E-04 7.52502E-15-8.67262E-04 2.99151E-09-3.82969E-08-3.43310E-04
 -1       122 2.18412E-04 7.52502E-15-8.65882E-04 2.99156E-09-3.82969E-08-3.42794E-04
 -1       123-2.04060E-04-4.31604E-14-1.09270E-05-8.08422E-08 1.11663E-07-4.87015E-04
 -1       124-1.96806E-04-4.31604E-14-9.85595E-06-8.08426E-08 1.11663E-07-4.87771E-04
 -1       125 8.67841E-04-5.55178E-14 4.39021E-04 2.26695E-07 1.40235E-07-9.87145E-04
 -1       126 8.57107E-04-5.55178E-14 4.39363E-04 2.26693E-07 1.40234E-07-9.86908E-04
 -3
    1PSTEP                         4           1           3          
  100CL  101 2.10000E-01         126                     1    1           1
 -4  ERROR       1    1
 -5  STR(%)      1    1    0    0
 -1         1 7.14808E+01
 -1         2 7.14808E+01
 -1         3 7.37803E+01
 -1         4 7.37803E+01
 -1         5 7.14808E+01
 -1         6 7.14808E+01
 -1         7 7.37803E+01
 -1         8 7.37803E+01
 -1         9 7.48616E+01
 -1        10 7.48616E+01
 -1        11 7.48616E+01
 -1        12 7.48616E+01
 -1        13 8.39668E+01
 -1        14 8.39668E+01
 -1        15 8.39668E+01
 -1        16 8.39668E+01
 -1        17 8.39668E+01
 -1        18 8.39668E+01
 -1        19 8.39668E+01
 -1        20 8.39668E+01
 -1        21 4.30541E+01
 -1        22 2.95403E+01
 -1        23 4.30541E+01
 -1        24 2.95403E+01
 -1        25 1.01040E+02
 -1        26 3.47754E+01
 -1        27 1.01040E+02
 -1        28 3.47754E+01
 -1        29 1.01040E+02
 -1        30 4.24008E+01
 -1        31 1.01040E+02
 -1        32 4.24008E+01
 -1        33 8.87475E+01
 -1        34 4.57490E+01
 -1        35 8.87475E+01
 -1        36 4.57490E+01
 -1        37 8.48905E+01
 -1        38 4.74421E+01
 -1        39 8.48905E+01
 -1        40 4.74421E+01
 -1        41 7.72441E+01
 -1        42 4.83554E+01
 -1        43 7.72441E+01
 -1        44 4.83554E+01
 -1        45 7.37302E+01
 -1        46 4.97053E+01
 -1        47 7.37302E+01
 -1        48 4.97053E+01
 -1        49 7.48022E+01
 -1        50 5.05996E+01
 -1        51 7.48022E+01
 -1        52 5.05996E+01
 -1        53 7.54284E+01
 -1        54 5.06443E+01
 -1        55 7.54284E+01
 -1        56 5.06443E+01
 -1        57 7.61283E+01
 -1        58 5.06443E+01
 -1        59 7.61283E+01
 -1        60 5.06443E+01
 -1        61 7.87485E+01
 -1        62 5.00306E+01
 -1        63 7.87485E+01
 -1        64 5.00306E+01
 -1        65 8.46538E+01
 -1        66 4.91617E+01
 -1        67 8.46538E+01
 -1        68 4.91617E+01
 -1        69 8.46538E+01
 -1        70 4.68687E+01
 -1        71 8.46538E+01
 -1        72 4.68687E+01
 -1        73 9.11954E+01
 -1        74 4.27823E+01
 -1        75 9.11954E+01
 -1        76 4.27823E+01
 -1        77 9.11954E+01
 -1        78 5.55747E+01
 -1        79 9.11954E+01
 -1        80 5.55747E+01
 -1        81 5.55747E+01
 -1        82 5.55747E+01
 -1        83 5.55747E+01
 -1        84 5.55747E+01
 -1        85 5.83741E+01
 -1        86 5.83741E+01
 -1        87 5.83741E+01
 -1        88 5.83741E+01
 -1        89 5.00183E+01
 -1        90 5.00183E+01
 -1        91 4.54482E+01
 -1        92 4.54482E+01
 -1        93 3.40418E+01
 -1        94 3.40418E+01
 -1        95 4.30541E+01
 -1        96 4.30541E+01
 -1        97 1.01040E+02
 -1        98 1.01040E+02
 -1        99 1.01040E+02
 -1       100 1.01040E+02
 -1       101 8.87475E+01
 -1       102 8.87475E+01
 -1       103 8.48905E+01
 -1       104 8.48905E+01
 -1       105 7.72441E+01
 -1       106 7.72441E+01
 -1       107 7.37302E+01
 -1       108 7.37302E+01
 -1       109 7.48022E+01
 -1       110 7.48022E+01
 -1       111 7.54284E+01
 -1       112 7.54284E+01
 -1       113 7.61283E+01
 -1       114 7.61283E+01
 -1       115 7.87485E+01
 -1       116 7.87485E+01
 -1       117 8.46538E+01
 -1       118 8.46538E+01
 -1       119 8.46538E+01
 -1       120 8.46538E+01
 -1       121 9.11954E+01
 -1       122 9.11954E+01
 -1       123 9.11954E+01
 -1       124 9.11954E+01
 -1       125 4.35030E+01
 -1       126 4.35030E+01
 -3
    1PSTEP                         5           2           3          
  100CL  102 2.20000E-01         126                     1    2           1
 -4  DISP        4    1
 -5  D1          1    2    1    0
 -5  D2          1    2    2    0
 -5  D3          1    2    3    0
 -5  ALL         1    2    0    0    1ALL
 -1         1 0.00000E+00 0.00000E+00 0.00000E+00
 -1         2 0.00000E+00 0.00000E+00 0.00000E+00
 -1         3 6.77221E-04 0.00000E+00 8.33495E-05
 -1         4 8.50871E-04 0.00000E+00-8.34739E-04
 -1         5 0.00000E+00 0.00000E+00 0.00000E+00
 -1         6 0.00000E+00 0.00000E+00 0.00000E+00
 -1         7 6.77131E-04 0.00000E+00 8.33694E-05
 -1         8 8.50930E-04 0.00000E+00-8.34766E-04
 -1         9 2.30659E-03 0.00000E+00 1.69116E-04
 -1        10 2.34594E-03 0.00000E+00-1.46413E-03
 -1        11 2.30659E-03 0.00000E+00 1.69118E-04
 -1        12 2.34601E-03 0.00000E+00-1.46415E-03
 -1        13 4.43968E-03 0.00000E+00 2.29517E-04
 -1        14 4.42724E-03 0.00000E+00-1.84086E-03
 -1        15 4.43963E-03 0.00000E+00 2.29530E-04
 -1        16 4.42731E-03 0.00000E+00-1.84087E-03
 -1        17 6.85489E-03 0.00000E+00 2.69549E-04
 -1        18 6.79292E-03 0.00000E+00-2.02027E-03
 -1        19 6.85487E-03 0.00000E+00 2.69572E-04
 -1        20 6.79302E-03 0.00000E+00-2.02027E-03
 -1        21 9.35068E-03 0.00000E+00 2.97909E-04
 -1        22 9.25811E-03 0.00000E+00-2.04063E-03
 -1        23 9.35069E-03 0.00000E+00 2.97920E-04
 -1        24 9.25824E-03 0.00000E+00-2.04063E-03
 -1        25 1.17832E-02 0.00000E+00 3.22238E-04
 -1        26 1.16747E-02 0.00000E+00-1.94056E-03
 -1        27 1.17832E-02 0.00000E+00 3.22246E-04
 -1        28 1.16748E-02 0.00000E+00-1.94055E-03
 -1        29 1.40560E-02 0.00000E+00 3.46289E-04
 -1        30 1.39426E-02 0.00000E+00-1.75428E-03
 -1        31 1.40559E-02 0.00000E+00 3.46295E-04
 -1        32 1.39427E-02 0.00000E+00-1.75428E-03
 -1        33 1.61167E-02 0.00000E+00 3.71733E-04
 -1        34 1.60032E-02 0.00000E+00-1.50297E-03
 -1        35 1.61167E-02 0.00000E+00 3.71720E-04
 -1        36 1.60033E-02 0.00000E+00-1.50299E-03
 -1        37 1.79086E-02 0.00000E+00 4.00706E-04
 -1        38 1.77983E-02 0.00000E+00-1.19753E-03
 -1        39 1.79086E-02 0.00000E+00 4.00679E-04
 -1        40 1.77984E-02 0.00000E+00-1.19755E-03
 -1        41 1.93807E-02 0.00000E+00 4.33572E-04
 -1        42 1.92783E-02 0.00000E+00-8.56739E-04
 -1        43 1.93807E-02 0.00000E+00 4.33552E-04
 -1        44 1.92784E-02 0.00000E+00-8.56730E-04
 -1        45 2.05128E-02 0.00000E+00 4.67813E-04
 -1        46 2.04227E-02 0.00000E+00-5.07792E-04
 -1        47 2.05127E-02 0.00000E+00 4.67810E-04
 -1        48 2.04228E-02 0.00000E+00-5.07773E-04
 -1        49 2.13175E-02 0.00000E+00 4.99443E-04
 -1        50 2.12411E-02 0.00000E+00-1.73349E-04
 -1        51 2.13175E-02 0.00000E+00 4.99443E-04
 -1        52 2.12411E-02 0.00000E+00-1.73375E-04
 -1        53 2.18306E-02 0.00000E+00 5.25914E-04
 -1        54 2.17636E-02 0.00000E+00 1.42953E-04
 -1        55 2.18305E-02 0.00000E+00 5.25918E-04
 -1        56 2.17637E-02 0.00000E+00 1.42928E-04
 -1        57 2.20552E-02 0.00000E+00 5.46726E-04
 -1        58 2.19961E-02 0.00000E+00 4.45489E-04
 -1        59 2.20553E-02 0.00000E+00 5.46757E-04
 -1        60 2.19962E-02 0.00000E+00 4.45539E-04
 -1        61 2.19865E-02 0.00000E+00 5.61317E-04
 -1        62 2.19382E-02 0.00000E+00 7.23289E-04
 -1        63 2.19865E-02 0.00000E+00 5.61335E-04
 -1        64 2.19383E-02 0.00000E+00 7.23308E-04
 -1        65 2.16568E-02 0.00000E+00 5.72070E-04
 -1        66 2.16192E-02 0.00000E+00 9.60233E-04
 -1        67 2.16568E-02 0.00000E+00 5.72101E-04
 -1        68 2.16192E-02 0.00000E+00 9.60309E-04
 -1        69 2.11097E-02 0.00000E+00 5.81207E-04
 -1        70 2.10861E-02 0.00000E+00 1.14132E-03
 -1        71 2.11096E-02 0.00000E+00 5.81189E-04
 -1        72 2.10861E-02 0.00000E+00 1.14128E-03
 -1        73 2.04237E-02 0.00000E+00 5.90837E-04
 -1        74 2.04061E-02 0.00000E+00 1.26518E-03
 -1        75 2.04238E-02 0.00000E+00 5.90775E-04
 -1        76 2.04061E-02 0.00000E+00 1.26515E-03
 -1        77 1.96646E-02 0.00000E+00 6.10013E-04
 -1        78 1.96760E-02 0.00000E+00 1.32892E-03
 -1        79 1.96643E-02 0.00000E+00 6.10000E-04
 -1        80 1.96761E-02 0.00000E+00 1.32902E-03
 -1        81 1.89345E-02 0.00000E+00 6.15673E-04
 -1        82 1.88860E-02 0.00000E+00 1.38069E-03
 -1        83 1.89348E-02 0.00000E+00 6.15664E-04
 -1        84 1.88858E-02 0.00000E+00 1.38033E-03
 -1        85 0.00000E+00 0.00000E+00 0.00000E+00
 -1        86 9.68711E-04 0.00000E+00 1.00836E-03
 -1        87 0.00000E+00 0.00000E+00 0.00000E+00
 -1        88 9.68667E-04 0.00000E+00 1.00835E-03
 -1        89 2.49937E-03 0.00000E+00 1.79165E-03
 -1        90 2.49930E-03 0.00000E+00 1.79162E-03
 -1        91 4.60383E-03 0.00000E+00 2.28874E-03
 -1        92 4.60377E-03 0.00000E+00 2.28876E-03
 -1        93 6.98058E-03 0.00000E+00 2.55284E-03
 -1        94 6.98051E-03 0.00000E+00 2.55288E-03
 -1        95 9.44430E-03 0.00000E+00 2.63355E-03
 -1        96 9.44427E-03 0.00000E+00 2.63358E-03
 -1        97 1.18476E-02 0.00000E+00 2.58379E-03
 -1        98 1.18476E-02 0.00000E+00 2.58379E-03
 -1        99 1.40941E-02 0.00000E+00 2.44671E-03
 -1       100 1.40940E-02 0.00000E+00 2.44671E-03
 -1       101 1.61304E-02 0.00000E+00 2.24732E-03
 -1       102 1.61303E-02 0.00000E+00 2.24732E-03
 -1       103 1.79007E-02 0.00000E+00 1.99977E-03
 -1       104 1.79006E-02 0.00000E+00 1.99976E-03
 -1       105 1.93566E-02 0.00000E+00 1.72325E-03
 -1       106 1.93565E-02 0.00000E+00 1.72323E-03
 -1       107 2.04787E-02 0.00000E+00 1.44060E-03
 -1       108 2.04786E-02 0.00000E+00 1.44057E-03
 -1       109 2.12772E-02 0.00000E+00 1.16818E-03
 -1       110 2.12771E-02 0.00000E+00 1.16822E-03
 -1       111 2.17850E-02 0.00000E+00 9.04367E-04
 -1       112 2.17850E-02 0.00000E+00 9.04459E-04
 -1       113 2.20071E-02 0.00000E+00 6.41928E-04
 -1       114 2.20072E-02 0.00000E+00 6.41944E-04
 -1       115 2.19412E-02 0.00000E+00 3.93510E-04
 -1       116 2.19412E-02 0.00000E+00 3.93536E-04
 -1       117 2.16219E-02 0.00000E+00 1.81008E-04
 -1       118 2.16220E-02 0.00000E+00 1.81058E-04
 -1       119 2.10909E-02 0.00000E+00 2.39106E-05
 -1       120 2.10909E-02 0.00000E+00 2.39376E-05
 -1       121 2.04153E-02 0.00000E+00-6.63997E-05
 -1       122 2.04153E-02 0.00000E+00-6.63769E-05
 -1       123 1.96908E-02 0.00000E+00-9.71170E-05
 -1       124 1.96908E-02 0.00000E+00-9.72196E-05
 -1       125 1.88793E-02 0.00000E+00-8.28091E-05
 -1       126 1.88794E-02 0.00000E+00-8.28866E-05
 -3
    1PSTEP                         6           2           3          
  100CL  102 2.20000E-01         126                     1    2           1
 -4  STRESS      6    1
 -5  SXX         1    4    1    1
 -5  SYY         1    4    2    2
 -5  SZZ         1    4    3    3
 -5  SXY         1    4    1    2
 -5  SYZ         1    4    2    3
 -5  SZX         1    4    3    1
 -1         1-3.77441E+03-3.85116E+03-8.75704E+03-8.69385E-05 9.91431E-05 2.47876E+03
 -1         2 4.48560E+02 4.05463E+02 8.78830E+02 9.27009E-06-1.41691E-04 2.09225E+03
 -1         3-1.16129E+01 2.27140E+02 7.64166E+02-4.61201E-02 1.00126E-02 7.22569E+02
 -1         4-1.30612E+03-2.47122E+03-6.78139E+03 3.04629E-02-1.32846E-02 7.11941E+02
 -1         5-3.77453E+03-3.85128E+03-8.75732E+03-8.69792E-05 9.91520E-05 2.47893E+03
 -1         6 4.48628E+02 4.05550E+02 8.79031E+02 9.29077E-06-1.41693E-04 2.09197E+03
 -1         7-1.10257E+01 2.27385E+02 7.64425E+02-4.61202E-02 1.00126E-02 7.22527E+02
 -1         8-1.30450E+03-2.47053E+03-6.78073E+03 3.04631E-02-1.32846E-02 7.11915E+02
 -1         9 3.04445E+01 2.71398E+02 8.66952E+02-3.69354E-03 1.16451E-03 7.96723E+02
 -1        10-1.42405E+03-1.86994E+03-4.73479E+03 3.94676E-02-5.27532E-03 4.13107E+02
 -1        11 3.12059E+01 2.71714E+02 8.67243E+02-3.69356E-03 1.16451E-03 7.96800E+02
 -1        12-1.42309E+03-1.86950E+03-4.73428E+03 3.94678E-02-5.27534E-03 4.13069E+02
 -1        13 4.21809E+01 2.60550E+02 8.28737E+02-2.59129E-02 6.36026E-03 6.63690E+02
 -1        14-6.84447E+02-9.14442E+02-2.34428E+03 3.29251E-02-3.10153E-03 4.32322E+02
 -1        15 4.29321E+01 2.60900E+02 8.29155E+02-2.59129E-02 6.36027E-03 6.63625E+02
 -1        16-6.83174E+02-9.13880E+02-2.34369E+03 3.29253E-02-3.10155E-03 4.32284E+02
 -1        17 4.10062E+01 2.44585E+02 7.78793E+02-1.01339E-02 1.18263E-02 5.39495E+02
 -1        18-2.56678E+02-2.35536E+02-5.24868E+02 4.95130E-02-6.28692E-04 3.79868E+02
 -1        19 4.19159E+01 2.44975E+02 7.79184E+02-1.01339E-02 1.18263E-02 5.39516E+02
 -1        20-2.55383E+02-2.34966E+02-5.24265E+02 4.95132E-02-6.28691E-04 3.79880E+02
 -1        21 2.70880E+01 2.24514E+02 7.25443E+02 5.77035E-03 5.64098E-03 4.09361E+02
 -1        22 8.24176E+01 2.84071E+02 8.70263E+02 6.66104E-02 1.30344E-03 3.34926E+02
 -1        23 2.79587E+01 2.24868E+02 7.25753E+02 5.77038E-03 5.64098E-03 4.09363E+02
 -1        24 8.37252E+01 2.84647E+02 8.70876E+02 6.66108E-02 1.30344E-03 3.34929E+02
 -1        25 1.50244E+01 2.04627E+02 6.69674E+02 8.88978E-03 3.91295E-03 2.94518E+02
 -1        26 3.21072E+02 6.49320E+02 1.85791E+03 6.41711E-02 4.92366E-03 2.81563E+02
 -1        27 1.58222E+01 2.04962E+02 6.69992E+02 8.88981E-03 3.91294E-03 2.94432E+02
 -1        28 3.22221E+02 6.49817E+02 1.85841E+03 6.41715E-02 4.92363E-03 2.81478E+02
 -1        29 1.05765E+01 1.85520E+02 6.08515E+02-2.15926E-02 2.80316E-03 2.17264E+02
 -1        30 4.98884E+02 9.06044E+02 2.54536E+03 4.12428E-02 2.97427E-03 2.41501E+02
 -1        31 1.14227E+01 1.85856E+02 6.08787E+02-2.15927E-02 2.80317E-03 2.17182E+02
 -1        32 5.00110E+02 9.06525E+02 2.54574E+03 4.12430E-02 2.97425E-03 2.41424E+02
 -1        33 6.57454E+00 1.66478E+02 5.47484E+02-1.77259E-02-6.63537E-03 1.68159E+02
 -1        34 6.27777E+02 1.09454E+03 3.05383E+03 4.43051E-02-1.20531E-02 2.11529E+02
 -1        35 7.42031E+00 1.66800E+02 5.47710E+02-1.77259E-02-6.63537E-03 1.68147E+02
 -1        36 6.29017E+02 1.09504E+03 3.05425E+03 4.43054E-02-1.20531E-02 2.11497E+02
 -1        37 1.47374E+00 1.48532E+02 4.91619E+02-6.42086E-03-1.37753E-02 1.10720E+02
 -1        38 7.13850E+02 1.22401E+03 3.40644E+03 4.61270E-02-9.84962E-03 1.65927E+02
 -1        39 2.24775E+00 1.48855E+02 4.91921E+02-6.42089E-03-1.37753E-02 1.10740E+02
 -1        40 7.15016E+02 1.22455E+03 3.40708E+03 4.61273E-02-9.84964E-03 1.65929E+02
 -1        41-1.71158E+00 1.30520E+02 4.33956E+02-5.28893E-03-1.03424E-02 4.28093E+01
 -1        42 7.54810E+02 1.27556E+03 3.53982E+03 3.94644E-02 4.76659E-03 1.04456E+02
 -1        43-1.04828E+00 1.30836E+02 4.34343E+02-5.28895E-03-1.03424E-02 4.28660E+01
 -1        44 7.55823E+02 1.27604E+03 3.54042E+03 3.94646E-02 4.76661E-03 1.04530E+02
 -1        45 5.14129E-01 1.11089E+02 3.66510E+02-6.18299E-03-1.29890E-03-1.42579E+01
 -1        46 7.58367E+02 1.25009E+03 3.44870E+03 4.19527E-02 9.73058E-03 4.44761E+01
 -1        47 1.09990E+00 1.11365E+02 3.66846E+02-6.18301E-03-1.29890E-03-1.42958E+01
 -1        48 7.59284E+02 1.25044E+03 3.44894E+03 4.19529E-02 9.73058E-03 4.44840E+01
 -1        49 1.11674E+01 9.24483E+01 2.93358E+02-3.86834E-02-2.71464E-04-3.46409E+01
 -1        50 7.49772E+02 1.19042E+03 3.25331E+03 2.24764E-02-1.35757E-02 9.59310E+00
 -1        51 1.18652E+01 9.27585E+01 2.93692E+02-3.86835E-02-2.71444E-04-3.47472E+01
 -1        52 7.50943E+02 1.19086E+03 3.25362E+03 2.24766E-02-1.35758E-02 9.45853E+00
 -1        53 1.90268E+01 7.35460E+01 2.22719E+02-5.22335E-03 2.03224E-03-3.57177E+01
 -1        54 7.31394E+02 1.13248E+03 3.07463E+03 2.59685E-02-1.32595E-02-8.00504E+00
 -1        55 1.94621E+01 7.37759E+01 2.23048E+02-5.22336E-03 2.03225E-03-3.57354E+01
 -1        56 7.32222E+02 1.13294E+03 3.07534E+03 2.59686E-02-1.32595E-02-8.06049E+00
 -1        57 2.72968E+01 5.78551E+01 1.62727E+02 1.59676E-02 1.58494E-02-6.21828E+01
 -1        58 7.05914E+02 1.06723E+03 2.87884E+03 3.45616E-02 2.61976E-02-4.12493E+01
 -1        59 2.74201E+01 5.79265E+01 1.62840E+02 1.59676E-02 1.58494E-02-6.21265E+01
 -1        60 7.06403E+02 1.06749E+03 2.87925E+03 3.45616E-02 2.61977E-02-4.10905E+01
 -1        61 5.11160E+01 5.54212E+01 1.31341E+02-4.13545E-03 9.12365E-03-1.05776E+02
 -1        62 6.74203E+02 9.67646E+02 2.57314E+03 5.78123E-02 9.67589E-03-8.54573E+01
 -1        63 5.17154E+01 5.56796E+01 1.31601E+02-4.13546E-03 9.12366E-03-1.05864E+02
 -1        64 6.75559E+02 9.68258E+02 2.57383E+03 5.78126E-02 9.67587E-03-8.55788E+01
 -1        65 6.10506E+01 5.59508E+01 1.24161E+02-9.63845E-03 1.60677E-02-1.50442E+02
 -1        66 5.86818E+02 8.06098E+02 2.11524E+03-6.16999E-03 3.91218E-02-1.23597E+02
 -1        67 6.07743E+01 5.57861E+01 1.23888E+02-9.63845E-03 1.60677E-02-1.50515E+02
 -1        68 5.86764E+02 8.06002E+02 2.11497E+03-6.17004E-03 3.91217E-02-1.23613E+02
 -1        69 7.34740E+01 6.42542E+01 1.40118E+02-4.18178E-02-9.04015E-03-1.78566E+02
 -1        70 5.03278E+02 6.25632E+02 1.59094E+03 6.69251E-03-1.96331E-02-1.50037E+02
 -1        71 7.31620E+01 6.39975E+01 1.39570E+02-4.18178E-02-9.04012E-03-1.78562E+02
 -1        72 5.04058E+02 6.25830E+02 1.59081E+03 6.69253E-03-1.96330E-02-1.50118E+02
 -1        73 9.41152E+01 8.98917E+01 2.05654E+02 2.46535E-02-3.19357E-02-1.75796E+02
 -1        74 3.17649E+02 3.95344E+02 1.00379E+03-1.37641E-02-1.39621E-02-9.96273E+01
 -1        75 9.39231E+01 8.98144E+01 2.05590E+02 2.46535E-02-3.19357E-02-1.76069E+02
 -1        76 3.17169E+02 3.95330E+02 1.00423E+03-1.37642E-02-1.39622E-02-9.93841E+01
 -1        77 6.06655E+01 7.21622E+01 1.79889E+02-1.06699E-01-6.54042E-03-9.80822E+01
 -1        78 4.75291E+02 3.69340E+02 7.58020E+02 5.36721E-02 5.43557E-02-1.29305E+02
 -1        79 6.11306E+01 7.24360E+01 1.80337E+02-1.06699E-01-6.54066E-03-9.74325E+01
 -1        80 4.77922E+02 3.70038E+02 7.57716E+02 5.36722E-02 5.43553E-02-1.29171E+02
 -1        81 1.44572E+02 9.06660E+01 1.58474E+02 1.34197E-01-4.36883E-03 4.94707E+00
 -1        82-1.89178E+02 7.08971E+01 4.26362E+02-9.80491E-02-1.82408E-01-8.15086E+01
 -1        83 1.43122E+02 9.00480E+01 1.57869E+02 1.34196E-01-4.36845E-03 5.96088E+00
 -1        84-1.96148E+02 6.66785E+01 4.19260E+02-9.80461E-02-1.82403E-01-8.34823E+01
 -1        85 4.75185E+03 4.65013E+03 1.12201E+04-6.62801E-05-7.00791E-05 3.17525E+03
 -1        86 1.23010E+03 2.90865E+03 8.72323E+03-2.28197E-02-4.57141E-03 1.10492E+03
 -1        87 4.75180E+03 4.65009E+03 1.12200E+04-6.62881E-05-7.00772E-05 3.17510E+03
 -1        88 1.22955E+03 2.90838E+03 8.72288E+03-2.28196E-02-4.57140E-03 1.10490E+03
 -1        89 1.36868E+03 2.33909E+03 6.58434E+03-3.47050E-02-1.26372E-02 7.02968E+02
 -1        90 1.36938E+03 2.33942E+03 6.58476E+03-3.47051E-02-1.26372E-02 7.03016E+02
 -1        91 7.30708E+02 1.42587E+03 4.08878E+03-3.39455E-02 1.03340E-02 6.38646E+02
 -1        92 7.31023E+02 1.42609E+03 4.08921E+03-3.39455E-02 1.03340E-02 6.38623E+02
 -1        93 3.15708E+02 7.26088E+02 2.12665E+03-3.56716E-02 2.09826E-02 4.67911E+02
 -1        94 3.16276E+02 7.26347E+02 2.12695E+03-3.56717E-02 2.09826E-02 4.67897E+02
 -1        95-4.57255E+01 1.64540E+02 5.98766E+02-1.87238E-02 1.55633E-02 3.17978E+02
 -1        96-4.52791E+01 1.64687E+02 5.98809E+02-1.87238E-02 1.55633E-02 3.17973E+02
 -1        97-3.05290E+02-2.42523E+02-5.01516E+02-1.45463E-02 2.65530E-03 1.90542E+02
 -1        98-3.04883E+02-2.42389E+02-5.01478E+02-1.45463E-02 2.65531E-03 1.90461E+02
 -1        99-4.87801E+02-5.36533E+02-1.29592E+03-4.54901E-02-4.24853E-04 1.08557E+02
 -1       100-4.87309E+02-5.36320E+02-1.29571E+03-4.54902E-02-4.24832E-04 1.08486E+02
 -1       101-6.24234E+02-7.64413E+02-1.91328E+03-4.28133E-02 3.43080E-03 6.05491E+01
 -1       102-6.23722E+02-7.64206E+02-1.91310E+03-4.28134E-02 3.43081E-03 6.05327E+01
 -1       103-7.23011E+02-9.34054E+02-2.37373E+03-2.88821E-02-6.20856E-03 1.63987E+01
 -1       104-7.22610E+02-9.33928E+02-2.37371E+03-2.88822E-02-6.20856E-03 1.64197E+01
 -1       105-7.71881E+02-1.02507E+03-2.62416E+03-1.87668E-02-1.49505E-02-2.59930E+01
 -1       106-7.71618E+02-1.02498E+03-2.62410E+03-1.87668E-02-1.49505E-02-2.59124E+01
 -1       107-7.68470E+02-1.03719E+03-2.66703E+03-1.04492E-02-1.18518E-02-5.64944E+01
 -1       108-7.68217E+02-1.03698E+03-2.66661E+03-1.04492E-02-1.18518E-02-5.65013E+01
 -1       109-7.34294E+02-1.01077E+03-2.61403E+03-4.29180E-02 2.18909E-02-5.98735E+01
 -1       110-7.33937E+02-1.01046E+03-2.61337E+03-4.29181E-02 2.18909E-02-5.99974E+01
 -1       111-7.01145E+02-9.91411E+02-2.58273E+03-8.00894E-03 4.67410E-02-4.79551E+01
 -1       112-7.01140E+02-9.91443E+02-2.58284E+03-8.00895E-03 4.67410E-02-4.80190E+01
 -1       113-6.57722E+02-9.56038E+02-2.50885E+03 2.59731E-02 8.21688E-03-5.38556E+01
 -1       114-6.58084E+02-9.56282E+02-2.50929E+03 2.59731E-02 8.21686E-03-5.37865E+01
 -1       115-5.68400E+02-8.51228E+02-2.25252E+03 6.64678E-04 1.31346E-02-7.27919E+01
 -1       116-5.68424E+02-8.51192E+02-2.25239E+03 6.64675E-04 1.31346E-02-7.28559E+01
 -1       117-4.49320E+02-6.76309E+02-1.79423E+03 1.27829E-02 2.56410E-02-9.88393E+01
 -1       118-4.49792E+02-6.76511E+02-1.79443E+03 1.27828E-02 2.56410E-02-9.88552E+01
 -1       119-3.14354E+02-4.53012E+02-1.19058E+03 1.49146E-02 1.37525E-02-1.36093E+02
 -1       120-3.15614E+02-4.53591E+02-1.19124E+03 1.49145E-02 1.37525E-02-1.36251E+02
 -1       121-1.15768E+02-1.97858E+02-5.42556E+02 6.65390E-03 1.16605E-02-1.28637E+02
 -1       122-1.15696E+02-1.98000E+02-5.43103E+02 6.65392E-03 1.16605E-02-1.28877E+02
 -1       123-2.33306E+02-1.08545E+02-1.27863E+02 2.02530E-02-5.26012E-02-1.87914E+02
 -1       124-2.36202E+02-1.09915E+02-1.29535E+02 2.02526E-02-5.26009E-02-1.87562E+02
 -1       125 7.55079E+02 3.73233E+02 4.92202E+02 3.42742E-02-3.99371E-02-3.47277E+02
 -1       126 7.57295E+02 3.74249E+02 4.93377E+02 3.42743E-02-3.99373E-02-3.46976E+02
 -3
    1PSTEP                         7           2           3          
  100CL  102 2.20000E-01         126                     1    2           1
 -4  TOSTRAIN    6    1
 -5  EXX         1    4    1    1
 -5  EYY         1    4    2    2
 -5  EZZ         1    4    3    3
 -5  EXY         1    4    1    2
 -5  EYZ         1    4    2    3
 -5  EZX         1    4    3    1
 -1         1-2.91618E-05-1.34370E-16-1.64394E-02-1.93504E-10-3.05817E-14 8.50855E-03
 -1         2-3.02095E-05-5.78800E-15 1.72980E-03 7.36158E-11 9.01532E-14 6.77206E-03
 -1         3-1.02067E-03 2.91459E-14 1.98020E-03-1.50772E-07 2.98189E-08 2.28817E-03
 -1         4 3.62413E-03 8.88311E-16-1.42592E-02 9.98473E-08-4.20985E-08 2.72384E-03
 -1         5-2.91664E-05-1.34370E-16-1.64399E-02-1.93561E-10-3.05817E-14 8.50914E-03
 -1         6-3.02114E-05-5.78800E-15 1.73018E-03 7.36429E-11 9.01540E-14 6.77116E-03
 -1         7-1.01962E-03 2.91459E-14 1.98023E-03-1.50772E-07 2.98189E-08 2.28806E-03
 -1         8 3.62715E-03 8.88311E-16-1.42593E-02 9.98477E-08-4.20984E-08 2.72380E-03
 -1         9-1.01211E-03-8.49518E-15 2.17143E-03-1.22487E-08 3.23200E-09 2.48062E-03
 -1        10 1.30856E-03 2.69651E-14-9.36260E-03 1.29006E-07-1.31090E-08 1.72765E-03
 -1        11-1.01067E-03-8.49518E-15 2.17136E-03-1.22487E-08 3.23199E-09 2.48091E-03
 -1        12 1.31025E-03 2.69651E-14-9.36239E-03 1.29007E-07-1.31090E-08 1.72758E-03
 -1        13-9.14528E-04 7.53251E-15 2.03904E-03-8.51573E-08 1.71900E-08 2.03244E-03
 -1        14 6.04512E-04 1.00556E-14-4.55513E-03 1.07388E-07-5.64804E-09 1.64065E-03
 -1        15-9.13212E-04 7.53251E-15 2.03924E-03-8.51574E-08 1.71900E-08 2.03227E-03
 -1        16 6.06824E-04 1.00556E-14-4.55503E-03 1.07389E-07-5.64803E-09 1.64061E-03
 -1        17-8.29816E-04-3.65498E-15 1.88939E-03-3.48207E-08 3.67952E-08 1.62765E-03
 -1        18-1.90730E-04 3.77216E-14-8.28003E-04 1.60890E-07 5.33293E-09 1.27188E-03
 -1        19-8.28136E-04-3.65498E-15 1.88941E-03-3.48207E-08 3.67951E-08 1.62779E-03
 -1        20-1.88381E-04 3.77216E-14-8.27886E-04 1.60890E-07 5.33303E-09 1.27202E-03
 -1        21-7.67910E-04-6.93439E-15 1.74143E-03 1.78361E-08 1.91436E-08 1.21248E-03
 -1        22-7.56067E-04 8.02382E-14 1.98964E-03 2.16050E-07 1.43215E-08 9.59538E-04
 -1        23-7.66234E-04-6.93439E-15 1.74129E-03 1.78362E-08 1.91436E-08 1.21257E-03
 -1        24-7.53689E-04 8.02382E-14 1.98976E-03 2.16051E-07 1.43216E-08 9.59650E-04
 -1        25-7.04963E-04-5.99814E-15 1.59157E-03 2.82943E-08 1.39638E-08 8.53027E-04
 -1        26-1.14449E-03 7.58926E-14 3.96566E-03 2.07561E-07 2.52861E-08 6.78707E-04
 -1        27-7.03432E-04-5.99814E-15 1.59149E-03 2.82944E-08 1.39638E-08 8.52819E-04
 -1        28-1.14234E-03 7.58926E-14 3.96567E-03 2.07561E-07 2.52860E-08 6.78527E-04
 -1        29-6.32375E-04 2.56902E-16 1.43492E-03-7.04747E-08 6.13020E-09 6.19285E-04
 -1        30-1.38392E-03 2.09406E-14 5.32322E-03 1.33484E-07 1.51810E-08 4.95910E-04
 -1        31-6.30688E-04 2.56902E-16 1.43470E-03-7.04748E-08 6.13023E-09 6.19099E-04
 -1        32-1.38147E-03 2.09406E-14 5.32288E-03 1.33485E-07 1.51810E-08 4.95778E-04
 -1        33-5.69227E-04-1.01251E-15 1.28789E-03-5.66877E-08-2.36750E-08 4.77110E-04
 -1        34-1.56633E-03 3.05725E-14 6.32773E-03 1.45347E-07-3.34528E-08 3.83647E-04
 -1        35-5.67518E-04-1.01251E-15 1.28758E-03-5.66878E-08-2.36750E-08 4.77146E-04
 -1        36-1.56390E-03 3.05725E-14 6.32749E-03 1.45348E-07-3.34528E-08 3.83641E-04
 -1        37-5.13755E-04-1.28956E-15 1.15347E-03-1.93405E-08-4.53310E-08 3.06939E-04
 -1        38-1.69500E-03 3.69396E-14 7.02146E-03 1.50804E-07-2.69183E-08 2.53647E-04
 -1        39-5.12291E-04-1.28956E-15 1.15341E-03-1.93406E-08-4.53310E-08 3.07052E-04
 -1        40-1.69296E-03 3.69396E-14 7.02178E-03 1.50804E-07-2.69183E-08 2.53707E-04
 -1        41-4.51859E-04-1.55118E-15 1.01286E-03-1.62616E-08-3.39473E-08 1.01845E-04
 -1        42-1.71632E-03 2.51690E-14 7.26775E-03 1.27745E-07 1.86896E-08 1.02884E-04
 -1        43-4.50734E-04-1.55118E-15 1.01310E-03-1.62617E-08-3.39473E-08 1.02053E-04
 -1        44-1.71459E-03 2.51690E-14 7.26812E-03 1.27745E-07 1.86896E-08 1.03155E-04
 -1        45-3.71854E-04-5.40041E-15 8.48617E-04-1.99681E-08-4.60571E-09-6.96159E-05
 -1        46-1.61181E-03 2.91727E-14 7.05185E-03 1.35627E-07 3.39853E-08-2.65206E-05
 -1        47-3.70841E-04-5.40041E-15 8.48801E-04-1.99682E-08-4.60570E-09-6.97230E-05
 -1        48-1.60994E-03 2.91727E-14 7.05149E-03 1.35627E-07 3.39853E-08-2.64510E-05
 -1        49-2.73041E-04 2.04360E-14 6.69304E-04-1.25654E-07-2.65124E-09-1.24859E-04
 -1        50-1.44060E-03-4.28682E-16 6.61982E-03 7.36394E-08-4.28270E-08-7.74608E-05
 -1        51-2.71758E-04 2.04360E-14 6.69365E-04-1.25654E-07-2.65125E-09-1.25188E-04
 -1        52-1.43821E-03-4.28682E-16 6.61937E-03 7.36396E-08-4.28270E-08-7.78541E-05
 -1        53-1.86945E-04-7.43569E-15 5.01549E-04-1.69965E-08 6.41627E-09-1.21158E-04
 -1        54-1.31131E-03 1.13461E-14 6.23736E-03 8.46656E-08-4.21313E-08-8.31447E-05
 -1        55-1.86274E-04-7.43569E-15 5.01873E-04-1.69965E-08 6.41627E-09-1.21213E-04
 -1        56-1.31010E-03 1.13461E-14 6.23814E-03 8.46657E-08-4.21313E-08-8.33212E-05
 -1        57-1.10167E-04 8.59114E-15 3.57119E-04 5.18203E-08 5.16302E-08-2.02939E-04
 -1        58-1.18224E-03 3.44428E-14 5.82335E-03 1.12076E-07 8.47750E-08-1.46384E-04
 -1        59-1.10001E-04 8.59114E-15 3.57260E-04 5.18204E-08 5.16302E-08-2.02757E-04
 -1        60-1.18152E-03 3.44428E-14 5.82379E-03 1.12076E-07 8.47751E-08-1.45877E-04
 -1        61-2.57049E-05-4.71293E-15 2.62802E-04-1.32830E-08 2.96418E-08-3.42649E-04
 -1        62-9.62311E-04 5.06856E-14 5.16915E-03 1.87866E-07 3.05728E-08-2.54648E-04
 -1        63-2.45918E-05-4.71293E-15 2.62807E-04-1.32830E-08 2.96418E-08-3.42937E-04
 -1        64-9.59898E-04 5.06856E-14 5.16941E-03 1.87866E-07 3.05726E-08-2.55040E-04
 -1        65 2.01257E-06 3.61978E-15 2.38378E-04-3.08697E-08 5.24286E-08-4.86832E-04
 -1        66-7.23465E-04 1.77485E-14 4.22635E-03-1.89507E-08 1.26551E-07-3.59524E-04
 -1        67 1.64501E-06 3.61978E-15 2.38031E-04-3.08697E-08 5.24286E-08-4.87073E-04
 -1        68-7.23323E-04 1.77485E-14 4.22578E-03-1.89507E-08 1.26551E-07-3.59581E-04
 -1        69 1.33437E-05 1.89283E-14 2.64002E-04-1.36240E-07-2.78768E-08-5.77139E-04
 -1        70-4.10848E-04-3.37923E-15 3.12815E-03 2.09944E-08-6.37913E-08-4.44310E-04
 -1        71 1.31750E-05 1.89283E-14 2.63056E-04-1.36240E-07-2.78768E-08-5.77134E-04
 -1        72-4.08962E-04-3.37923E-15 3.12713E-03 2.09944E-08-6.37912E-08-4.44605E-04
 -1        73-3.27568E-06-5.27582E-16 3.92541E-04 7.86052E-08-1.04797E-07-5.65345E-04
 -1        74-2.61244E-04-6.40133E-16 1.97716E-03-4.53378E-08-4.46100E-08-2.91962E-04
 -1        75-3.68053E-06-5.27582E-16 3.92610E-04 7.86052E-08-1.04797E-07-5.66223E-04
 -1        76-2.62731E-04-6.40133E-16 1.97858E-03-4.53380E-08-4.46101E-08-2.91132E-04
 -1        77-4.64974E-05 7.27485E-14 3.59145E-04-3.46974E-07-1.62804E-08-3.12977E-04
 -1        78 3.31458E-04-6.15543E-14 1.27131E-03 1.77018E-07 1.73834E-07-4.05148E-04
 -1        79-4.58144E-05 7.27485E-14 3.59650E-04-3.46974E-07-1.62808E-08-3.10868E-04
 -1        80 3.37746E-04-6.15543E-14 1.26805E-03 1.77018E-07 1.73833E-07-4.04855E-04
 -1        81 1.74122E-04 8.29905E-14 2.19561E-04 4.35806E-07-2.05913E-08 1.75188E-05
 -1        82-8.53614E-04 4.48674E-13 1.16055E-03-3.28003E-07-5.87241E-07-2.34146E-04
 -1        83 1.71502E-04 8.29905E-14 2.19509E-04 4.35806E-07-2.05889E-08 2.08476E-05
 -1        84-8.62776E-04 4.48674E-13 1.15141E-03-3.27999E-07-5.87236E-07-2.40572E-04
 -1        85-3.12573E-05-1.45250E-15 2.05264E-02-1.12856E-10-2.17003E-13 9.68693E-03
 -1        86-5.66547E-03 8.49766E-15 1.83832E-02-7.35616E-08-1.58847E-08 3.00800E-03
 -1        87-3.12564E-05-1.45250E-15 2.05262E-02-1.12866E-10-2.17003E-13 9.68649E-03
 -1        88-5.66638E-03 8.49766E-15 1.83830E-02-7.35616E-08-1.58846E-08 3.00794E-03
 -1        89-3.33278E-03 2.44549E-14 1.35552E-02-1.11120E-07-4.40061E-08 1.67239E-03
 -1        90-3.33160E-03 2.44549E-14 1.35555E-02-1.11120E-07-4.40061E-08 1.67256E-03
 -1        91-2.43357E-03 2.57070E-14 8.64714E-03-1.11637E-07 2.86902E-08 1.58342E-03
 -1        92-2.43325E-03 2.57070E-14 8.64778E-03-1.11637E-07 2.86903E-08 1.58333E-03
 -1        93-1.46890E-03 3.30007E-14 4.62651E-03-1.19086E-07 6.24495E-08 1.22976E-03
 -1        94-1.46789E-03 3.30007E-14 4.62662E-03-1.19086E-07 6.24495E-08 1.22975E-03
 -1        95-7.79753E-04 9.24260E-15 1.49470E-03-6.32602E-08 4.75866E-08 9.26086E-04
 -1        96-7.78780E-04 9.24260E-15 1.49437E-03-6.32603E-08 4.75866E-08 9.26130E-04
 -1        97-2.65438E-04 6.99857E-16-7.84596E-04-4.76514E-08 6.46871E-09 6.45642E-04
 -1        98-2.64526E-04 6.99857E-16-7.84929E-04-4.76515E-08 6.46873E-09 6.45434E-04
 -1        99 1.19167E-04 4.00412E-14-2.44082E-03-1.47779E-07-7.62724E-09 4.63853E-04
 -1       100 1.20094E-04 4.00412E-14-2.44083E-03-1.47779E-07-7.62716E-09 4.63659E-04
 -1       101 4.27875E-04 3.59514E-14-3.73329E-03-1.39602E-07 5.94476E-09 3.55727E-04
 -1       102 4.28869E-04 3.59514E-14-3.73339E-03-1.39602E-07 5.94472E-09 3.55715E-04
 -1       103 6.67490E-04 1.57408E-14-4.70428E-03-9.32497E-08-2.33190E-08 2.26568E-04
 -1       104 6.68377E-04 1.57408E-14-4.70462E-03-9.32498E-08-2.33190E-08 2.26678E-04
 -1       105 8.12605E-04 1.11988E-14-5.24138E-03-5.97705E-08-5.04663E-08 7.14606E-05
 -1       106 8.13127E-04 1.11988E-14-5.24148E-03-5.97706E-08-5.04663E-08 7.17426E-05
 -1       107 8.68101E-04 1.18979E-15-5.34880E-03-3.32470E-08-3.94587E-08-6.42887E-05
 -1       108 8.68260E-04 1.18979E-15-5.34808E-03-3.32470E-08-3.94587E-08-6.43218E-05
 -1       109 8.94521E-04 4.06714E-14-5.26122E-03-1.40575E-07 6.96897E-08-1.14479E-04
 -1       110 8.94698E-04 4.06714E-14-5.26007E-03-1.40575E-07 6.96898E-08-1.14897E-04
 -1       111 9.37425E-04 3.43562E-14-5.22056E-03-2.71699E-08 1.52736E-07-1.11393E-04
 -1       112 9.37547E-04 3.43562E-14-5.22081E-03-2.71702E-08 1.52736E-07-1.11598E-04
 -1       113 9.61906E-04 1.02097E-14-5.09252E-03 8.44473E-08 2.71110E-08-1.65649E-04
 -1       114 9.61515E-04 1.02097E-14-5.09318E-03 8.44473E-08 2.71110E-08-1.65419E-04
 -1       115 9.10901E-04 2.02837E-15-4.58977E-03 2.32115E-09 4.29195E-08-2.57385E-04
 -1       116 9.10714E-04 2.02837E-15-4.58943E-03 2.32115E-09 4.29195E-08-2.57594E-04
 -1       117 7.27490E-04 1.51785E-14-3.65184E-03 4.22610E-08 8.34212E-08-3.57937E-04
 -1       118 7.26613E-04 1.51785E-14-3.65183E-03 4.22609E-08 8.34212E-08-3.57985E-04
 -1       119 4.37535E-04-2.68573E-15-2.39753E-03 4.89980E-08 4.42527E-08-4.76264E-04
 -1       120 4.35312E-04-2.68573E-15-2.39780E-03 4.89979E-08 4.42527E-08-4.76758E-04
 -1       121 2.54693E-04-1.45229E-15-1.11144E-03 2.21725E-08 3.76186E-08-4.37484E-04
 -1       122 2.55370E-04-1.45229E-15-1.11273E-03 2.21725E-08 3.76186E-08-4.38294E-04
 -1       123-4.24453E-04 1.83596E-14-4.58179E-05 6.32344E-08-1.71889E-07-6.05704E-04
 -1       124-4.29375E-04 1.83596E-14-4.68303E-05 6.32338E-08-1.71889E-07-6.04509E-04
 -1       125 1.20186E-03 4.73243E-14 4.17653E-04 1.09096E-07-1.31179E-07-1.13661E-03
 -1       126 1.20578E-03 4.73243E-14 4.18142E-04 1.09096E-07-1.31179E-07-1.13568E-03
 -3
    1PSTEP                         8           2           3          
  100CL  102 2.20000E-01         126                     1    2           1
 -4  ERROR       1    1
 -5  STR(%)      1    1    0    0
 -1         1 7.13164E+01
 -1         2 7.13164E+01
 -1         3 7.38759E+01
 -1         4 7.38759E+01
 -1         5 7.13164E+01
 -1         6 7.13164E+01
 -1         7 7.38759E+01
 -1         8 7.38759E+01
 -1         9 7.50543E+01
 -1        10 7.50543E+01
 -1        11 7.50543E+01
 -1        12 7.50543E+01
 -1        13 8.37980E+01
 -1        14 8.37980E+01
 -1        15 8.37980E+01
 -1        16 8.37980E+01
 -1        17 8.37980E+01
 -1        18 8.37980E+01
 -1        19 8.37980E+01
 -1        20 8.37980E+01
 -1        21 5.34449E+01
 -1        22 2.84156E+01
 -1        23 5.34449E+01
 -1        24 2.84156E+01
 -1        25 8.27779E+01
 -1        26 3.71366E+01
 -1        27 8.27779E+01
 -1        28 3.71366E+01
 -1        29 8.61984E+01
 -1        30 4.40576E+01
 -1        31 8.61984E+01
 -1        32 4.40576E+01
 -1        33 8.61984E+01
 -1        34 4.76529E+01
 -1        35 8.61984E+01
 -1        36 4.76529E+01
 -1        37 8.16686E+01
 -1        38 4.93876E+01
 -1        39 8.16686E+01
 -1        40 4.93876E+01
 -1        41 7.44141E+01
 -1        42 5.00918E+01
 -1        43 7.44141E+01
 -1        44 5.00918E+01
 -1        45 6.99930E+01
 -1        46 5.15101E+01
 -1        47 6.99930E+01
 -1        48 5.15101E+01
 -1        49 6.98343E+01
 -1        50 5.27635E+01
 -1        51 6.98343E+01
 -1        52 5.27635E+01
 -1        53 6.74576E+01
 -1        54 5.41638E+01
 -1        55 6.74576E+01
 -1        56 5.41638E+01
 -1        57 6.54455E+01
 -1        58 5.58510E+01
 -1        59 6.54455E+01
 -1        60 5.58510E+01
 -1        61 6.60528E+01
 -1        62 5.62274E+01
 -1        63 6.60528E+01
 -1        64 5.62274E+01
 -1        65 6.66875E+01
 -1        66 5.62274E+01
 -1        67 6.66875E+01
 -1        68 5.62274E+01
 -1        69 6.66875E+01
 -1        70 5.36702E+01
 -1        71 6.66875E+01
 -1        72 5.36702E+01
 -1        73 1.00695E+02
 -1        74 4.87619E+01
 -1        75 1.00695E+02
 -1        76 4.87619E+01
 -1        77 1.00695E+02
 -1        78 6.42262E+01
 -1        79 1.00695E+02
 -1        80 6.42262E+01
 -1        81 6.42262E+01
 -1        82 6.42262E+01
 -1        83 6.42262E+01
 -1        84 6.42262E+01
 -1        85 5.86566E+01
 -1        86 5.86566E+01
 -1        87 5.86566E+01
 -1        88 5.86566E+01
 -1        89 5.06222E+01
 -1        90 5.06222E+01
 -1        91 4.60529E+01
 -1        92 4.60529E+01
 -1        93 3.46304E+01
 -1        94 3.46304E+01
 -1        95 5.34449E+01
 -1        96 5.34449E+01
 -1        97 8.27779E+01
 -1        98 8.27779E+01
 -1        99 8.61984E+01
 -1       100 8.61984E+01
 -1       101 8.61984E+01
 -1       102 8.61984E+01
 -1       103 8.16686E+01
 -1       104 8.16686E+01
 -1       105 7.44141E+01
 -1       106 7.44141E+01
 -1       107 6.99930E+01
 -1       108 6.99930E+01
 -1       109 6.98343E+01
 -1       110 6.98343E+01
 -1       111 6.74576E+01
 -1       112 6.74576E+01
 -1       113 6.54455E+01
 -1       114 6.54455E+01
 -1       115 6.60528E+01
 -1       116 6.60528E+01
 -1       117 6.66875E+01
 -1       118 6.66875E+01
 -1       119 6.66875E+01
 -1       120 6.66875E+01
 -1       121 1.00695E+02
 -1       122 1.00695E+02
 -1       123 1.00695E+02
 -1       124 1.00695E+02
 -1       125 5.42233E+01
 -1       126 5.42233E+01
 -3
    1PSTEP                         9           3           3          
  100CL  103 2.30000E-01         126                     1    3           1
 -4  DISP        4    1
 -5  D1          1    2    1    0
 -5  D2          1    2    2    0
 -5  D3          1    2    3    0
 -5  ALL         1    2    0    0    1ALL
 -1         1 0.00000E+00 0.00000E+00 0.00000E+00
 -1         2 0.00000E+00 0.00000E+00 0.00000E+00
 -1         3 7.22681E-04 0.00000E+00 7.31890E-05
 -1         4 9.09009E-04 0.00000E+00-8.96126E-04
 -1         5 0.00000E+00 0.00000E+00 0.00000E+00
 -1         6 0.00000E+00 0.00000E+00 0.00000E+00
 -1         7 7.22691E-04 0.00000E+00 7.32178E-05
 -1         8 9.09055E-04 0.00000E+00-8.96134E-04
 -1         9 2.42785E-03 0.00000E+00 1.48873E-04
 -1        10 2.47028E-03 0.00000E+00-1.58162E-03
 -1        11 2.42782E-03 0.00000E+00 1.48886E-04
 -1        12 2.47035E-03 0.00000E+00-1.58166E-03
 -1        13 4.68411E-03 0.00000E+00 1.98566E-04
 -1        14 4.66999E-03 0.00000E+00-2.01280E-03
 -1        15 4.68409E-03 0.00000E+00 1.98565E-04
 -1        16 4.67004E-03 0.00000E+00-2.01284E-03
 -1        17 7.27855E-03 0.00000E+00 2.27862E-04
 -1        18 7.20749E-03 0.00000E+00-2.23505E-03
 -1        19 7.27860E-03 0.00000E+00 2.27865E-04
 -1        20 7.20762E-03 0.00000E+00-2.23507E-03
 -1        21 9.97379E-03 0.00000E+00 2.44246E-04
 -1        22 9.86829E-03 0.00000E+00-2.27798E-03
 -1        23 9.97378E-03 0.00000E+00 2.44241E-04
 -1        24 9.86839E-03 0.00000E+00-2.27796E-03
 -1        25 1.25992E-02 0.00000E+00 2.54951E-04
 -1        26 1.24764E-02 0.00000E+00-2.18603E-03
 -1        27 1.25991E-02 0.00000E+00 2.54937E-04
 -1        28 1.24764E-02 0.00000E+00-2.18603E-03
 -1        29 1.50491E-02 0.00000E+00 2.65466E-04
 -1        30 1.49224E-02 0.00000E+00-2.00171E-03
 -1        31 1.50491E-02 0.00000E+00 2.65467E-04
 -1        32 1.49225E-02 0.00000E+00-2.00170E-03
 -1        33 1.72636E-02 0.00000E+00 2.77298E-04
 -1        34 1.71412E-02 0.00000E+00-1.75653E-03
 -1        35 1.72636E-02 0.00000E+00 2.77318E-04
 -1        36 1.71413E-02 0.00000E+00-1.75648E-03
 -1        37 1.92083E-02 0.00000E+00 2.90766E-04
 -1        38 1.90929E-02 0.00000E+00-1.46802E-03
 -1        39 1.92083E-02 0.00000E+00 2.90785E-04
 -1        40 1.90930E-02 0.00000E+00-1.46798E-03
 -1        41 2.08453E-02 0.00000E+00 3.07157E-04
 -1        42 2.07385E-02 0.00000E+00-1.14752E-03
 -1        43 2.08453E-02 0.00000E+00 3.07169E-04
 -1        44 2.07386E-02 0.00000E+00-1.14751E-03
 -1        45 2.21509E-02 0.00000E+00 3.26491E-04
 -1        46 2.20539E-02 0.00000E+00-8.09865E-04
 -1        47 2.21508E-02 0.00000E+00 3.26485E-04
 -1        48 2.20540E-02 0.00000E+00-8.09913E-04
 -1        49 2.31324E-02 0.00000E+00 3.47332E-04
 -1        50 2.30432E-02 0.00000E+00-4.63901E-04
 -1        51 2.31325E-02 0.00000E+00 3.47312E-04
 -1        52 2.30433E-02 0.00000E+00-4.63924E-04
 -1        53 2.37849E-02 0.00000E+00 3.67940E-04
 -1        54 2.37023E-02 0.00000E+00-1.11141E-04
 -1        55 2.37849E-02 0.00000E+00 3.67933E-04
 -1        56 2.37024E-02 0.00000E+00-1.11070E-04
 -1        57 2.40881E-02 0.00000E+00 3.86061E-04
 -1        58 2.40140E-02 0.00000E+00 2.38530E-04
 -1        59 2.40880E-02 0.00000E+00 3.86041E-04
 -1        60 2.40141E-02 0.00000E+00 2.38567E-04
 -1        61 2.40420E-02 0.00000E+00 4.01463E-04
 -1        62 2.39776E-02 0.00000E+00 5.64809E-04
 -1        63 2.40420E-02 0.00000E+00 4.01429E-04
 -1        64 2.39777E-02 0.00000E+00 5.64834E-04
 -1        65 2.36736E-02 0.00000E+00 4.14566E-04
 -1        66 2.36228E-02 0.00000E+00 8.39982E-04
 -1        67 2.36736E-02 0.00000E+00 4.14533E-04
 -1        68 2.36229E-02 0.00000E+00 8.39991E-04
 -1        69 2.30663E-02 0.00000E+00 4.27133E-04
 -1        70 2.30313E-02 0.00000E+00 1.04751E-03
 -1        71 2.30663E-02 0.00000E+00 4.27094E-04
 -1        72 2.30313E-02 0.00000E+00 1.04751E-03
 -1        73 2.23117E-02 0.00000E+00 4.41308E-04
 -1        74 2.22849E-02 0.00000E+00 1.19091E-03
 -1        75 2.23116E-02 0.00000E+00 4.41300E-04
 -1        76 2.22850E-02 0.00000E+00 1.19102E-03
 -1        77 2.14729E-02 0.00000E+00 4.56955E-04
 -1        78 2.14783E-02 0.00000E+00 1.26442E-03
 -1        79 2.14730E-02 0.00000E+00 4.56945E-04
 -1        80 2.14784E-02 0.00000E+00 1.26435E-03
 -1        81 2.06331E-02 0.00000E+00 4.59693E-04
 -1        82 2.05580E-02 0.00000E+00 1.33595E-03
 -1        83 2.06331E-02 0.00000E+00 4.59670E-04
 -1        84 2.05581E-02 0.00000E+00 1.33609E-03
 -1        85 0.00000E+00 0.00000E+00 0.00000E+00
 -1        86 1.03236E-03 0.00000E+00 1.04848E-03
 -1        87 0.00000E+00 0.00000E+00 0.00000E+00
 -1        88 1.03233E-03 0.00000E+00 1.04846E-03
 -1        89 2.63802E-03 0.00000E+00 1.86654E-03
 -1        90 2.63793E-03 0.00000E+00 1.86652E-03
 -1        91 4.87037E-03 0.00000E+00 2.39645E-03
 -1        92 4.87029E-03 0.00000E+00 2.39644E-03
 -1        93 7.42557E-03 0.00000E+00 2.68186E-03
 -1        94 7.42555E-03 0.00000E+00 2.68185E-03
 -1        95 1.00839E-02 0.00000E+00 2.76203E-03
 -1        96 1.00838E-02 0.00000E+00 2.76200E-03
 -1        97 1.26766E-02 0.00000E+00 2.69469E-03
 -1        98 1.26765E-02 0.00000E+00 2.69468E-03
 -1        99 1.50985E-02 0.00000E+00 2.53230E-03
 -1       100 1.50984E-02 0.00000E+00 2.53230E-03
 -1       101 1.72880E-02 0.00000E+00 2.31119E-03
 -1       102 1.72879E-02 0.00000E+00 2.31118E-03
 -1       103 1.92107E-02 0.00000E+00 2.05027E-03
 -1       104 1.92106E-02 0.00000E+00 2.05029E-03
 -1       105 2.08299E-02 0.00000E+00 1.76251E-03
 -1       106 2.08299E-02 0.00000E+00 1.76254E-03
 -1       107 2.21222E-02 0.00000E+00 1.46311E-03
 -1       108 2.21221E-02 0.00000E+00 1.46318E-03
 -1       109 2.30930E-02 0.00000E+00 1.15805E-03
 -1       110 2.30930E-02 0.00000E+00 1.15810E-03
 -1       111 2.37372E-02 0.00000E+00 8.44753E-04
 -1       112 2.37371E-02 0.00000E+00 8.44695E-04
 -1       113 2.40370E-02 0.00000E+00 5.30977E-04
 -1       114 2.40368E-02 0.00000E+00 5.30943E-04
 -1       115 2.39969E-02 0.00000E+00 2.36256E-04
 -1       116 2.39968E-02 0.00000E+00 2.36285E-04
 -1       117 2.36418E-02 0.00000E+00-1.17566E-05
 -1       118 2.36418E-02 0.00000E+00-1.17438E-05
 -1       119 2.30518E-02 0.00000E+00-1.89620E-04
 -1       120 2.30517E-02 0.00000E+00-1.89596E-04
 -1       121 2.23082E-02 0.00000E+00-2.94572E-04
 -1       122 2.23082E-02 0.00000E+00-2.94640E-04
 -1       123 2.15029E-02 0.00000E+00-3.42024E-04
 -1       124 2.15029E-02 0.00000E+00-3.41976E-04
 -1       125 2.05772E-02 0.00000E+00-3.41285E-04
 -1       126 2.05770E-02 0.00000E+00-3.41280E-04
 -3
    1PSTEP                        10           3           3          
  100CL  103 2.30000E-01         126                     1    3           1
 -4  STRESS      6    1
 -5  SXX         1    4    1    1
 -5  SYY         1    4    2    2
 -5  SZZ         1    4    3    3
 -5  SXY         1    4    1    2
 -5  SYZ         1    4    2    3
 -5  SZX         1    4    3    1
 -1         1-4.04693E+03-4.13463E+03-9.38110E+03-5.15952E-05 7.94529E-05 2.63721E+03
 -1         2 4.10887E+02 3.61582E+02 7.67782E+02 5.03041E-05 1.72107E-05 2.23102E+03
 -1         3-6.40392E+01 1.79134E+02 6.53688E+02 5.38931E-03 1.48662E-02 7.52227E+02
 -1         4-1.42012E+03-2.67255E+03-7.31374E+03 2.37007E-02-4.11897E-03 7.35319E+02
 -1         5-4.04696E+03-4.13467E+03-9.38118E+03-5.16029E-05 7.94562E-05 2.63734E+03
 -1         6 4.11023E+02 3.61715E+02 7.68096E+02 5.03023E-05 1.72098E-05 2.23106E+03
 -1         7-6.36398E+01 1.79322E+02 6.53913E+02 5.38932E-03 1.48662E-02 7.52198E+02
 -1         8-1.41979E+03-2.67245E+03-7.31375E+03 2.37007E-02-4.11898E-03 7.35300E+02
 -1         9-3.56364E+01 2.23576E+02 7.70994E+02-1.66232E-02 6.49745E-03 8.06562E+02
 -1        10-1.59348E+03-2.08026E+03-5.24946E+03 3.23750E-02-1.72600E-02 3.87916E+02
 -1        11-3.48951E+01 2.23855E+02 7.71184E+02-1.66233E-02 6.49745E-03 8.06483E+02
 -1        12-1.59250E+03-2.07988E+03-5.24916E+03 3.23752E-02-1.72600E-02 3.87777E+02
 -1        13-2.89234E+01 2.16986E+02 7.54170E+02-1.09556E-02-2.29047E-04 6.99540E+02
 -1        14-8.26686E+02-1.08798E+03-2.77296E+03 2.79097E-02-1.98745E-02 4.35478E+02
 -1        15-2.81802E+01 2.17293E+02 7.54453E+02-1.09557E-02-2.29051E-04 6.99615E+02
 -1        16-8.25812E+02-1.08759E+03-2.77253E+03 2.79098E-02-1.98746E-02 4.35465E+02
 -1        17-3.25490E+01 2.04379E+02 7.18459E+02 2.64680E-02 1.75777E-03 5.94830E+02
 -1        18-3.68027E+02-3.47879E+02-7.86257E+02 7.05855E-02-1.23734E-02 4.07905E+02
 -1        19-3.16906E+01 2.04742E+02 7.18810E+02 2.64681E-02 1.75776E-03 5.94801E+02
 -1        20-3.66962E+02-3.47348E+02-7.85557E+02 7.05858E-02-1.23734E-02 4.07873E+02
 -1        21-4.05590E+01 1.85088E+02 6.61850E+02-5.87587E-03-2.74944E-03 4.51547E+02
 -1        22 1.99211E+01 2.40293E+02 7.86971E+02 4.82611E-02 6.99551E-03 3.66250E+02
 -1        23-3.95829E+01 1.85481E+02 6.62184E+02-5.87590E-03-2.74944E-03 4.51436E+02
 -1        24 2.10801E+01 2.40820E+02 7.87568E+02 4.82613E-02 6.99549E-03 3.66156E+02
 -1        25-5.75484E+01 1.59735E+02 5.92483E+02-2.51890E-02-7.37429E-03 3.16499E+02
 -1        26 2.80737E+02 6.40730E+02 1.87017E+03 2.42546E-02 7.89437E-05 3.06252E+02
 -1        27-5.66701E+01 1.60121E+02 5.92888E+02-2.51891E-02-7.37430E-03 3.16565E+02
 -1        28 2.81762E+02 6.41164E+02 1.87059E+03 2.42547E-02 7.89545E-05 3.06304E+02
 -1        29-6.97624E+01 1.34400E+02 5.18174E+02 1.62699E-02 6.18951E-04 2.14728E+02
 -1        30 4.53489E+02 8.94997E+02 2.55429E+03 5.52833E-02 5.51942E-03 2.50890E+02
 -1        31-6.89265E+01 1.34802E+02 5.18681E+02 1.62700E-02 6.18962E-04 2.14824E+02
 -1        32 4.54429E+02 8.95463E+02 2.55491E+03 5.52835E-02 5.51947E-03 2.50998E+02
 -1        33-7.15678E+01 1.10984E+02 4.40117E+02 3.15471E-03 1.01734E-02 1.51656E+02
 -1        34 5.75350E+02 1.05805E+03 2.98302E+03 5.25225E-02 2.58682E-02 2.09450E+02
 -1        35-7.06319E+01 1.11407E+02 4.40589E+02 3.15472E-03 1.01735E-02 1.51652E+02
 -1        36 5.76441E+02 1.05856E+03 2.98362E+03 5.25228E-02 2.58682E-02 2.09502E+02
 -1        37-7.25890E+01 8.89288E+01 3.66442E+02-1.07845E-02 9.88410E-03 1.05412E+02
 -1        38 6.56703E+02 1.16471E+03 3.26241E+03 4.47749E-02 2.20718E-02 1.70435E+02
 -1        39-7.16609E+01 8.93156E+01 3.66802E+02-1.07845E-02 9.88411E-03 1.05404E+02
 -1        40 6.57748E+02 1.16510E+03 3.26265E+03 4.47751E-02 2.20718E-02 1.70475E+02
 -1        41-7.39392E+01 7.02059E+01 3.04573E+02-1.04118E-02 6.14825E-03 5.55788E+01
 -1        42 7.06171E+02 1.22499E+03 3.41677E+03 4.65785E-02 2.06648E-03 1.20271E+02
 -1        43-7.30658E+01 7.05497E+01 3.04846E+02-1.04118E-02 6.14826E-03 5.54742E+01
 -1        44 7.07150E+02 1.22529E+03 3.41678E+03 4.65787E-02 2.06646E-03 1.20209E+02
 -1        45-6.96767E+01 5.61766E+01 2.52689E+02-2.50297E-02-2.70984E-03 2.54118E+01
 -1        46 7.39312E+02 1.25117E+03 3.47138E+03 3.73106E-02-2.46960E-02 8.11044E+01
 -1        47-6.86761E+01 5.65677E+01 2.52988E+02-2.50298E-02-2.70983E-03 2.52967E+01
 -1        48 7.40552E+02 1.25167E+03 3.47180E+03 3.73109E-02-2.46961E-02 8.09920E+01
 -1        49-6.54860E+01 4.29124E+01 2.03907E+02 1.50191E-02-1.04288E-02 2.06503E+01
 -1        50 7.58632E+02 1.26277E+03 3.49077E+03 5.59047E-02-1.22993E-02 6.26736E+01
 -1        51-6.45728E+01 4.33025E+01 2.04292E+02 1.50191E-02-1.04288E-02 2.06427E+01
 -1        52 7.59757E+02 1.26340E+03 3.49178E+03 5.59049E-02-1.22993E-02 6.26912E+01
 -1        53-5.77478E+01 3.12309E+01 1.57404E+02 1.05882E-02-3.86303E-03 7.12733E-01
 -1        54 7.71665E+02 1.26193E+03 3.47457E+03 4.67914E-02 3.65494E-02 3.27256E+01
 -1        55-5.70346E+01 3.15356E+01 1.57706E+02 1.05882E-02-3.86305E-03 7.16725E-01
 -1        56 7.72552E+02 1.26239E+03 3.47522E+03 4.67916E-02 3.65495E-02 3.28846E+01
 -1        57-3.82039E+01 2.73078E+01 1.25286E+02-4.87945E-02-1.02222E-02-5.41214E+01
 -1        58 7.68465E+02 1.22018E+03 3.33554E+03 2.87257E-02 1.90534E-02-2.69984E+01
 -1        59-3.70798E+01 2.77564E+01 1.25650E+02-4.87948E-02-1.02222E-02-5.39628E+01
 -1        60 7.69972E+02 1.22076E+03 3.33598E+03 2.87260E-02 1.90534E-02-2.67446E+01
 -1        61-2.74018E+01 2.56300E+01 1.10009E+02 2.75068E-02-1.75644E-02-1.32621E+02
 -1        62 7.02764E+02 1.09404E+03 2.97367E+03 7.30352E-02 1.26552E-02-1.04090E+02
 -1        63-2.66146E+01 2.59502E+01 1.10293E+02 2.75069E-02-1.75644E-02-1.32467E+02
 -1        64 7.03654E+02 1.09439E+03 2.97393E+03 7.30355E-02 1.26553E-02-1.03829E+02
 -1        65-6.42835E+00 3.53227E+01 1.22315E+02 4.31041E-03-1.66942E-02-1.91389E+02
 -1        66 6.01390E+02 8.98350E+02 2.41283E+03 5.38202E-02 4.84411E-03-1.56159E+02
 -1        67-5.88958E+00 3.55475E+01 1.22525E+02 4.31043E-03-1.66942E-02-1.91500E+02
 -1        68 6.02364E+02 8.98729E+02 2.41312E+03 5.38205E-02 4.84412E-03-1.56141E+02
 -1        69 1.99797E+01 5.36738E+01 1.58012E+02-7.86410E-03-2.01138E-02-1.92989E+02
 -1        70 4.98772E+02 6.86211E+02 1.79978E+03 3.54916E-02-2.19537E-03-1.58801E+02
 -1        71 2.10520E+01 5.41657E+01 1.58579E+02-7.86413E-03-2.01138E-02-1.93126E+02
 -1        72 4.99911E+02 6.86830E+02 1.80071E+03 3.54918E-02-2.19537E-03-1.58708E+02
 -1        73 3.74769E+01 6.98236E+01 1.95169E+02-2.76723E-02-3.87952E-03-1.67386E+02
 -1        74 3.03060E+02 4.30577E+02 1.13687E+03 4.91141E-02 5.61671E-02-8.93581E+01
 -1        75 3.83994E+01 7.02605E+01 1.95700E+02-2.76724E-02-3.87956E-03-1.67049E+02
 -1        76 3.04528E+02 4.31124E+02 1.13723E+03 4.91146E-02 5.61672E-02-8.90044E+01
 -1        77 1.55086E+01 4.79584E+01 1.44110E+02 1.31946E-02-5.60063E-03-1.11947E+02
 -1        78 5.03235E+02 4.23744E+02 9.12463E+02 3.03216E-02-3.55078E-02-1.76579E+02
 -1        79 1.61658E+01 4.82182E+01 1.44319E+02 1.31947E-02-5.60063E-03-1.12050E+02
 -1        80 5.03660E+02 4.23966E+02 9.12781E+02 3.03216E-02-3.55079E-02-1.76704E+02
 -1        81 1.86962E+01 3.32430E+01 9.32892E+01-3.39271E-03-1.13915E-02-4.61522E+00
 -1        82-3.51124E+02 5.82836E+01 5.47303E+02 6.73099E-02 7.28823E-02-1.43496E+02
 -1        83 2.00142E+01 3.37814E+01 9.37651E+01-3.39276E-03-1.13916E-02-4.49790E+00
 -1        84-3.48670E+02 5.99015E+01 5.50244E+02 6.73107E-02 7.28833E-02-1.42774E+02
 -1        85 4.95317E+03 4.83730E+03 1.16849E+04-7.02890E-05-4.49415E-05 3.39215E+03
 -1        86 1.23380E+03 3.01140E+03 9.08177E+03-1.25741E-02-1.25710E-02 1.17452E+03
 -1        87 4.95306E+03 4.83719E+03 1.16847E+04-7.02834E-05-4.49388E-05 3.39207E+03
 -1        88 1.23410E+03 3.01150E+03 9.08180E+03-1.25742E-02-1.25710E-02 1.17455E+03
 -1        89 1.39623E+03 2.44784E+03 6.93513E+03-4.50539E-02-1.05626E-02 7.34315E+02
 -1        90 1.39683E+03 2.44812E+03 6.93545E+03-4.50540E-02-1.05626E-02 7.34320E+02
 -1        91 7.23903E+02 1.50938E+03 4.38388E+03-4.25519E-02-4.85982E-03 6.96013E+02
 -1        92 7.24614E+02 1.50970E+03 4.38426E+03-4.25520E-02-4.85986E-03 6.96136E+02
 -1        93 2.73377E+02 7.56356E+02 2.27371E+03-1.21563E-02-1.32904E-03 5.25286E+02
 -1        94 2.74137E+02 7.56660E+02 2.27397E+03-1.21563E-02-1.32904E-03 5.25265E+02
 -1        95-1.19385E+02 1.32277E+02 5.65636E+02-5.21296E-02-1.29267E-02 3.50634E+02
 -1        96-1.18455E+02 1.32669E+02 5.66008E+02-5.21299E-02-1.29267E-02 3.50545E+02
 -1        97-4.10261E+02-3.22022E+02-6.60661E+02-5.73269E-02-3.29011E-03 2.01683E+02
 -1        98-4.09511E+02-3.21666E+02-6.60230E+02-5.73271E-02-3.29014E-03 2.01760E+02
 -1        99-6.05519E+02-6.29923E+02-1.48764E+03-1.56363E-02-3.98633E-04 9.90546E+01
 -1       100-6.04835E+02-6.29629E+02-1.48734E+03-1.56363E-02-3.98640E-04 9.91204E+01
 -1       101-7.27140E+02-8.38523E+02-2.05556E+03-3.45296E-02-3.21837E-03 4.08171E+01
 -1       102-7.26328E+02-8.38155E+02-2.05515E+03-3.45298E-02-3.21837E-03 4.07972E+01
 -1       103-8.08951E+02-9.89173E+02-2.46989E+03-4.63828E-02 7.67114E-03 5.68692E+00
 -1       104-8.08101E+02-9.88749E+02-2.46934E+03-4.63830E-02 7.67116E-03 5.67141E+00
 -1       105-8.61482E+02-1.08847E+03-2.74359E+03-4.23766E-02 1.94925E-02-2.61347E+01
 -1       106-8.60676E+02-1.08805E+03-2.74299E+03-4.23767E-02 1.94925E-02-2.62716E+01
 -1       107-8.86786E+02-1.14401E+03-2.90068E+03-6.43790E-02 3.63519E-02-3.82373E+01
 -1       108-8.85924E+02-1.14363E+03-2.90025E+03-6.43793E-02 3.63520E-02-3.84412E+01
 -1       109-9.00668E+02-1.18516E+03-3.02143E+03-3.04776E-02 2.42316E-02-2.69506E+01
 -1       110-8.99993E+02-1.18503E+03-3.02169E+03-3.04777E-02 2.42316E-02-2.70380E+01
 -1       111-8.96901E+02-1.20650E+03-3.09435E+03-2.16452E-02-2.94436E-02-2.51497E+01
 -1       112-8.96413E+02-1.20641E+03-3.09450E+03-2.16452E-02-2.94436E-02-2.51613E+01
 -1       113-8.48556E+02-1.16669E+03-3.01117E+03-8.51542E-02-1.74440E-02-4.89593E+01
 -1       114-8.47594E+02-1.16616E+03-3.01038E+03-8.51545E-02-1.74441E-02-4.88652E+01
 -1       115-7.58715E+02-1.04114E+03-2.68799E+03-4.56449E-03 1.44270E-02-9.53960E+01
 -1       116-7.57929E+02-1.04074E+03-2.68745E+03-4.56449E-03 1.44271E-02-9.53291E+01
 -1       117-6.07575E+02-8.17819E+02-2.10381E+03 1.57027E-03 6.56862E-03-1.34636E+02
 -1       118-6.07523E+02-8.17805E+02-2.10381E+03 1.57029E-03 6.56861E-03-1.34941E+02
 -1       119-4.30319E+02-5.47660E+02-1.38861E+03-6.07637E-02 1.19738E-02-1.47171E+02
 -1       120-4.29391E+02-5.47368E+02-1.38857E+03-6.07640E-02 1.19740E-02-1.47457E+02
 -1       121-2.25132E+02-2.83236E+02-7.17281E+02-3.24451E-02-3.44017E-02-1.14530E+02
 -1       122-2.24974E+02-2.83134E+02-7.17097E+02-3.24452E-02-3.44018E-02-1.14275E+02
 -1       123-3.19951E+02-1.82104E+02-2.85897E+02-3.63760E-02 2.45649E-02-2.04882E+02
 -1       124-3.18742E+02-1.81492E+02-2.85069E+02-3.63762E-02 2.45651E-02-2.05148E+02
 -1       125 7.29563E+02 3.30561E+02 3.75495E+02-6.20520E-02 2.61075E-03-3.82612E+02
 -1       126 7.30606E+02 3.30890E+02 3.75558E+02-6.20524E-02 2.61084E-03-3.82842E+02
 -3
    1PSTEP                        11           3           3          
  100CL  103 2.30000E-01         126                     1    3           1
 -4  TOSTRAIN    6    1
 -5  EXX         1    4    1    1
 -5  EYY         1    4    2    2
 -5  EZZ         1    4    3    3
 -5  EXY         1    4    1    2
 -5  EYZ         1    4    2    3
 -5  EZX         1    4    3    1
 -1         1-3.25412E-05-1.62624E-15-1.76287E-02-9.36958E-11-4.07261E-13 9.08992E-03
 -1         2-3.36710E-05-3.55475E-16 1.53555E-03 1.58825E-10-5.10284E-14 7.22664E-03
 -1         3-1.05784E-03 1.16095E-15 1.80624E-03 1.62467E-08 4.85405E-08 2.38663E-03
 -1         4 3.89508E-03 8.77821E-15-1.53885E-02 7.73968E-08-1.20593E-08 2.85747E-03
 -1         5-3.25441E-05-1.62624E-15-1.76289E-02-9.37067E-11-4.07261E-13 9.09038E-03
 -1         6-3.36704E-05-3.55475E-16 1.53613E-03 1.58821E-10-5.10284E-14 7.22674E-03
 -1         7-1.05714E-03 1.16095E-15 1.80635E-03 1.62467E-08 4.85405E-08 2.38655E-03
 -1         8 3.89581E-03 8.77821E-15-1.53888E-02 7.73969E-08-1.20593E-08 2.85744E-03
 -1         9-1.09175E-03-1.28188E-15 2.04078E-03-5.49631E-08 1.92914E-08 2.51138E-03
 -1        10 1.43395E-03 1.80886E-14-1.03872E-02 1.07436E-07-5.30226E-08 1.70903E-03
 -1        11-1.09023E-03-1.28188E-15 2.04048E-03-5.49632E-08 1.92914E-08 2.51119E-03
 -1        12 1.43590E-03 1.80886E-14-1.03875E-02 1.07436E-07-5.30226E-08 1.70864E-03
 -1        13-1.03319E-03-5.17945E-15 1.96732E-03-3.56128E-08-2.33904E-09 2.14111E-03
 -1        14 6.90539E-04 1.50680E-14-5.38788E-03 9.37481E-08-6.09365E-08 1.71006E-03
 -1        15-1.03180E-03-5.17945E-15 1.96727E-03-3.56129E-08-2.33907E-09 2.14141E-03
 -1        16 6.92092E-04 1.50680E-14-5.38774E-03 9.37483E-08-6.09364E-08 1.71008E-03
 -1        17-9.70573E-04 4.20608E-15 1.85519E-03 8.56118E-08 9.88582E-09 1.79487E-03
 -1        18-2.08183E-04 9.66038E-14-1.29595E-03 2.31364E-07-2.89460E-08 1.39073E-03
 -1        19-9.68950E-04 4.20608E-15 1.85514E-03 8.56119E-08 9.88582E-09 1.79485E-03
 -1        20-2.06435E-04 9.66038E-14-1.29541E-03 2.31364E-07-2.89459E-08 1.39069E-03
 -1        21-8.84057E-04-1.07862E-14 1.68635E-03-1.86025E-08-9.86296E-09 1.33880E-03
 -1        22-8.35481E-04 3.71630E-14 1.87918E-03 1.55493E-07 3.05508E-08 1.05432E-03
 -1        23-8.82122E-04-1.07862E-14 1.68612E-03-1.86026E-08-9.86294E-09 1.33855E-03
 -1        24-8.33392E-04 3.71630E-14 1.87938E-03 1.55493E-07 3.05506E-08 1.05411E-03
 -1        25-8.09368E-04 4.51585E-15 1.50099E-03-8.05536E-08-2.78475E-08 9.16737E-04
 -1        26-1.26107E-03 8.52328E-16 4.04473E-03 7.87357E-08 4.12639E-09 7.31382E-04
 -1        27-8.07781E-04 4.51585E-15 1.50108E-03-8.05537E-08-2.78475E-08 9.17024E-04
 -1        28-1.25916E-03 8.52328E-16 4.04471E-03 7.87358E-08 4.12641E-09 7.31644E-04
 -1        29-7.32148E-04-2.42341E-15 1.31265E-03 5.27890E-08 4.43827E-09 6.06009E-04
 -1        30-1.50261E-03 5.75036E-14 5.39336E-03 1.78599E-07 2.59361E-08 4.95656E-04
 -1        31-7.30772E-04-2.42341E-15 1.31302E-03 5.27891E-08 4.43829E-09 6.06366E-04
 -1        32-1.50110E-03 5.75036E-14 5.39389E-03 1.78599E-07 2.59362E-08 4.96048E-04
 -1        33-6.41650E-04-5.85118E-15 1.11943E-03 8.93296E-09 3.34370E-08 4.22096E-04
 -1        34-1.62042E-03 6.18599E-14 6.22206E-03 1.67013E-07 9.02493E-08 3.54284E-04
 -1        35-6.39977E-04-5.85118E-15 1.11959E-03 8.93299E-09 3.34370E-08 4.22144E-04
 -1        36-1.61852E-03 6.18599E-14 6.22237E-03 1.67014E-07 9.02493E-08 3.54515E-04
 -1        37-5.60769E-04-3.67237E-15 9.41945E-04-3.61184E-08 3.08550E-08 2.90574E-04
 -1        38-1.69059E-03 4.02547E-14 6.75752E-03 1.42822E-07 7.61726E-08 2.50018E-04
 -1        39-5.59003E-04-3.67237E-15 9.41857E-04-3.61184E-08 3.08550E-08 2.90611E-04
 -1        40-1.68845E-03 4.02547E-14 6.75706E-03 1.42822E-07 7.61725E-08 2.50239E-04
 -1        41-4.93126E-04-5.11079E-15 7.92464E-04-3.43470E-08 1.89079E-08 1.44016E-04
 -1        42-1.71373E-03 3.25893E-14 7.04368E-03 1.51063E-07 1.09963E-08 1.31132E-04
 -1        43-4.91382E-04-5.11079E-15 7.92211E-04-3.43471E-08 1.89079E-08 1.43734E-04
 -1        44-1.71150E-03 3.25893E-14 7.04277E-03 1.51063E-07 1.09963E-08 1.31024E-04
 -1        45-4.26996E-04-2.91553E-15 6.65147E-04-8.10581E-08-1.07540E-08 5.84264E-05
 -1        46-1.68264E-03 2.47843E-14 7.12680E-03 1.23040E-07-7.68188E-08 6.00381E-05
 -1        47-4.24986E-04-2.91553E-15 6.64832E-04-8.10582E-08-1.07540E-08 5.81048E-05
 -1        48-1.68019E-03 2.47843E-14 7.12653E-03 1.23041E-07-7.68187E-08 5.97368E-05
 -1        49-3.69441E-04-3.75189E-15 5.49851E-04 4.94504E-08-3.31075E-08 5.26522E-05
 -1        50-1.65453E-03 5.90845E-14 7.14919E-03 1.82183E-07-3.66455E-08 5.82043E-05
 -1        51-3.67745E-04-3.75189E-15 5.49844E-04 4.94505E-08-3.31074E-08 5.26562E-05
 -1        52-1.65294E-03 5.90845E-14 7.15038E-03 1.82184E-07-3.66455E-08 5.82673E-05
 -1        53-3.05746E-04-1.06970E-14 4.35428E-04 3.45988E-08-1.21544E-08-4.52676E-06
 -1        54-1.60740E-03 5.92889E-14 7.09829E-03 1.50805E-07 1.19243E-07 2.14973E-05
 -1        55-3.04423E-04-1.06970E-14 4.35425E-04 3.45988E-08-1.21544E-08-4.50011E-06
 -1        56-1.60601E-03 5.92889E-14 7.09889E-03 1.50805E-07 1.19243E-07 2.20184E-05
 -1        57-2.28207E-04 2.20546E-14 3.41238E-04-1.58422E-07-3.35545E-08-1.77356E-04
 -1        58-1.48008E-03-2.94191E-15 6.78861E-03 9.32161E-08 6.18144E-08-1.10891E-04
 -1        59-2.25988E-04 2.20546E-14 3.40964E-04-1.58422E-07-3.35546E-08-1.76832E-04
 -1        60-1.47706E-03-2.94191E-15 6.78815E-03 9.32164E-08 6.18145E-08-1.10061E-04
 -1        61-1.89336E-04 2.83433E-15 2.96108E-04 8.92358E-08-5.72674E-08-4.29170E-04
 -1        62-1.28453E-03 1.01703E-13 6.04255E-03 2.37329E-07 4.02011E-08-3.10138E-04
 -1        63-1.87823E-04 2.83433E-15 2.95983E-04 8.92359E-08-5.72673E-08-4.28675E-04
 -1        64-1.28275E-03 1.01703E-13 6.04227E-03 2.37330E-07 4.02012E-08-3.09307E-04
 -1        65-1.55169E-04-5.20707E-16 3.05404E-04 1.35156E-08-5.44020E-08-6.17679E-04
 -1        66-9.79731E-04 5.00578E-14 4.88458E-03 1.74942E-07 1.41868E-08-4.52084E-04
 -1        67-1.54151E-04-5.20707E-16 3.05359E-04 1.35156E-08-5.44020E-08-6.18046E-04
 -1        68-9.77794E-04 5.00578E-14 4.88430E-03 1.74943E-07 1.41867E-08-4.52038E-04
 -1        69-1.29258E-04-4.64999E-16 3.60380E-04-2.64017E-08-6.50617E-08-6.20634E-04
 -1        70-6.24405E-04 1.28702E-14 3.60538E-03 1.15181E-07-8.48618E-09-4.59222E-04
 -1        71-1.27385E-04-4.64999E-16 3.60639E-04-2.64017E-08-6.50617E-08-6.21094E-04
 -1        72-6.22706E-04 1.28702E-14 3.60638E-03 1.15181E-07-8.48622E-09-4.58920E-04
 -1        73-1.23130E-04-2.12046E-15 4.25205E-04-9.00971E-08-1.11971E-08-5.35336E-04
 -1        74-4.22977E-04 6.64576E-14 2.29206E-03 1.62395E-07 1.79636E-07-2.48176E-04
 -1        75-1.21513E-04-2.12046E-15 4.25481E-04-9.00973E-08-1.11972E-08-5.34259E-04
 -1        76-4.19947E-04 6.64576E-14 2.29142E-03 1.62396E-07 1.79636E-07-2.47087E-04
 -1        77-1.16959E-04-2.23175E-15 3.24497E-04 4.25777E-08-1.88940E-08-3.56967E-04
 -1        78 2.38186E-04 1.13102E-14 1.60089E-03 9.64121E-08-1.16737E-07-5.49267E-04
 -1        79-1.15679E-04-2.23175E-15 3.24343E-04 4.25778E-08-1.88940E-08-3.57326E-04
 -1        80 2.38832E-04 1.13102E-14 1.60121E-03 9.64120E-08-1.16737E-07-5.49672E-04
 -1        81-5.03300E-05-2.10199E-14 1.95469E-04-1.16758E-08-3.67815E-08-9.80466E-06
 -1        82-1.34872E-03 1.28759E-13 1.60060E-03 2.23252E-07 2.32668E-07-4.14654E-04
 -1        83-4.77833E-05-2.10199E-14 1.95254E-04-1.16758E-08-3.67817E-08-9.46622E-06
 -1        84-1.34590E-03 1.28759E-13 1.60479E-03 2.23253E-07 2.32669E-07-4.12274E-04
 -1        85-3.48009E-05-4.59518E-16 2.13672E-02-1.69672E-10-2.26561E-13 1.03234E-02
 -1        86-6.01076E-03 7.17715E-16 1.91794E-02-3.98676E-08-4.07977E-08 3.17327E-03
 -1        87-3.47967E-05-4.59518E-16 2.13668E-02-1.69660E-10-2.26561E-13 1.03231E-02
 -1        88-6.01009E-03 7.17715E-16 1.91792E-02-3.98677E-08-4.07977E-08 3.17338E-03
 -1        89-3.61744E-03 3.94899E-14 1.43173E-02-1.44845E-07-3.86678E-08 1.70106E-03
 -1        90-3.61636E-03 3.94899E-14 1.43174E-02-1.44845E-07-3.86677E-08 1.70112E-03
 -1        91-2.75691E-03 3.35843E-14 9.33540E-03-1.37349E-07-2.16896E-08 1.69048E-03
 -1        92-2.75569E-03 3.35843E-14 9.33560E-03-1.37349E-07-2.16897E-08 1.69092E-03
 -1        93-1.73296E-03-6.77521E-15 5.02277E-03-3.92641E-08-6.25701E-09 1.36139E-03
 -1        94-1.73147E-03-6.77521E-15 5.02260E-03-3.92642E-08-6.25701E-09 1.36140E-03
 -1        95-9.32634E-04 4.99343E-14 1.50801E-03-1.67100E-07-5.03959E-08 1.01619E-03
 -1        96-9.30852E-04 4.99343E-14 1.50793E-03-1.67100E-07-5.03958E-08 1.01600E-03
 -1        97-3.57663E-04 6.29079E-14-1.03601E-03-1.85709E-07-1.97756E-08 6.92570E-04
 -1        98-3.56401E-04 6.29079E-14-1.03573E-03-1.85709E-07-1.97757E-08 6.92872E-04
 -1        99 3.83135E-05-2.08826E-15-2.76290E-03-5.07301E-08-3.58914E-09 4.52820E-04
 -1       100 3.95562E-05-2.08826E-15-2.76288E-03-5.07301E-08-3.58917E-09 4.53090E-04
 -1       101 3.37119E-04 1.87829E-14-3.96162E-03-1.11807E-07-1.50817E-08 3.10206E-04
 -1       102 3.38568E-04 1.87829E-14-3.96149E-03-1.11807E-07-1.50817E-08 3.10193E-04
 -1       103 5.69054E-04 4.16500E-14-4.84258E-03-1.51715E-07 1.97579E-08 2.10219E-04
 -1       104 5.70441E-04 4.16500E-14-4.84214E-03-1.51715E-07 1.97579E-08 2.10201E-04
 -1       105 7.27475E-04 4.05398E-14-5.42837E-03-1.39689E-07 5.96898E-08 9.39891E-05
 -1       106 7.28739E-04 4.05398E-14-5.42781E-03-1.39689E-07 5.96899E-08 9.35600E-05
 -1       107 8.28650E-04 1.01774E-13-5.76839E-03-2.12140E-07 1.14128E-07 2.45748E-05
 -1       108 8.30221E-04 1.01774E-13-5.76829E-03-2.12140E-07 1.14128E-07 2.39409E-05
 -1       109 9.15650E-04 1.42788E-14-6.03219E-03-1.00399E-07 7.77044E-08 2.41231E-05
 -1       110 9.17449E-04 1.42788E-14-6.03346E-03-1.00399E-07 7.77042E-08 2.38874E-05
 -1       111 9.95913E-04 1.12400E-14-6.20414E-03-6.94861E-08-9.71765E-08-1.39837E-05
 -1       112 9.97162E-04 1.12400E-14-6.20497E-03-6.94862E-08-9.71763E-08-1.40023E-05
 -1       113 1.02367E-03 1.34898E-13-6.06059E-03-2.76947E-07-5.79358E-08-1.40609E-04
 -1       114 1.02509E-03 1.34898E-13-6.05973E-03-2.76947E-07-5.79359E-08-1.40295E-04
 -1       115 9.05854E-04-1.50322E-14-5.40236E-03-1.46191E-08 4.72956E-08-3.34531E-04
 -1       116 9.07102E-04-1.50322E-14-5.40189E-03-1.46192E-08 4.72956E-08-3.34309E-04
 -1       117 6.69393E-04-7.00232E-15-4.20368E-03 5.32523E-09 2.12901E-08-4.83290E-04
 -1       118 6.69491E-04-7.00232E-15-4.20372E-03 5.32524E-09 2.12901E-08-4.84291E-04
 -1       119 3.65889E-04 5.80403E-14-2.73458E-03-1.97050E-07 4.13810E-08-5.19719E-04
 -1       120 3.67937E-04 5.80403E-14-2.73538E-03-1.97050E-07 4.13811E-08-5.20693E-04
 -1       121 1.76717E-04 3.62043E-14-1.40287E-03-1.07221E-07-1.10407E-07-3.97191E-04
 -1       122 1.76922E-04 3.62043E-14-1.40263E-03-1.07221E-07-1.10407E-07-3.96356E-04
 -1       123-4.72105E-04 2.24506E-14-3.16552E-04-1.16941E-07 8.17464E-08-6.64147E-04
 -1       124-4.70191E-04 2.24506E-14-3.15822E-04-1.16941E-07 8.17465E-08-6.65032E-04
 -1       125 1.24806E-03 6.44771E-14 1.85923E-04-2.01133E-07 1.16905E-08-1.25808E-03
 -1       126 1.25034E-03 6.44771E-14 1.85080E-04-2.01134E-07 1.16907E-08-1.25888E-03
 -3
    1PSTEP                        12           3           3          
  100CL  103 2.30000E-01         126                     1    3           1
 -4  ERROR       1    1
 -5  STR(%)      1    1    0    0
 -1         1 6.98728E+01
 -1         2 6.98728E+01
 -1         3 7.22573E+01
 -1         4 7.22573E+01
 -1         5 6.98728E+01
 -1         6 6.98728E+01
 -1         7 7.22573E+01
 -1         8 7.22573E+01
 -1         9 7.35748E+01
 -1        10 7.35748E+01
 -1        11 7.35748E+01
 -1        12 7.35748E+01
 -1        13 7.35748E+01
 -1        14 7.35748E+01
 -1        15 7.35748E+01
 -1        16 7.35748E+01
 -1        17 6.50813E+01
 -1        18 6.50813E+01
 -1        19 6.50813E+01
 -1        20 6.50813E+01
 -1        21 6.09888E+01
 -1        22 3.46293E+01
 -1        23 6.09888E+01
 -1        24 3.46293E+01
 -1        25 7.39612E+01
 -1        26 3.99876E+01
 -1        27 7.39612E+01
 -1        28 3.99876E+01
 -1        29 8.15993E+01
 -1        30 4.65793E+01
 -1        31 8.15993E+01
 -1        32 4.65793E+01
 -1        33 8.15993E+01
 -1        34 5.00465E+01
 -1        35 8.15993E+01
 -1        36 5.00465E+01
 -1        37 7.50809E+01
 -1        38 5.19650E+01
 -1        39 7.50809E+01
 -1        40 5.19650E+01
 -1        41 6.95735E+01
 -1        42 5.28844E+01
 -1        43 6.95735E+01
 -1        44 5.28844E+01
 -1        45 6.58508E+01
 -1        46 5.39788E+01
 -1        47 6.58508E+01
 -1        48 5.39788E+01
 -1        49 6.43959E+01
 -1        50 5.51044E+01
 -1        51 6.43959E+01
 -1        52 5.51044E+01
 -1        53 6.31233E+01
 -1        54 5.56942E+01
 -1        55 6.31233E+01
 -1        56 5.56942E+01
 -1        57 6.32410E+01
 -1        58 5.69888E+01
 -1        59 6.32410E+01
 -1        60 5.69888E+01
 -1        61 6.51040E+01
 -1        62 5.71725E+01
 -1        63 6.51040E+01
 -1        64 5.71725E+01
 -1        65 6.60359E+01
 -1        66 5.71725E+01
 -1        67 6.60359E+01
 -1        68 5.71725E+01
 -1        69 6.75662E+01
 -1        70 5.39847E+01
 -1        71 6.75662E+01
 -1        72 5.39847E+01
 -1        73 6.75662E+01
 -1        74 4.88069E+01
 -1        75 6.75662E+01
 -1        76 4.88069E+01
 -1        77 7.34608E+01
 -1        78 7.34608E+01
 -1        79 7.34608E+01
 -1        80 7.34608E+01
 -1        81 7.34608E+01
 -1        82 7.34608E+01
 -1        83 7.34608E+01
 -1        84 7.34608E+01
 -1        85 5.98226E+01
 -1        86 5.98226E+01
 -1        87 5.98226E+01
 -1        88 5.98226E+01
 -1        89 5.23169E+01
 -1        90 5.23169E+01
 -1        91 4.85558E+01
 -1        92 4.85558E+01
 -1        93 3.76648E+01
 -1        94 3.76648E+01
 -1        95 6.09888E+01
 -1        96 6.09888E+01
 -1        97 7.39612E+01
 -1        98 7.39612E+01
 -1        99 8.15993E+01
 -1       100 8.15993E+01
 -1       101 8.15993E+01
 -1       102 8.15993E+01
 -1       103 7.50809E+01
 -1       104 7.50809E+01
 -1       105 6.95735E+01
 -1       106 6.95735E+01
 -1       107 6.58508E+01
 -1       108 6.58508E+01
 -1       109 6.43959E+01
 -1       110 6.43959E+01
 -1       111 6.31233E+01
 -1       112 6.31233E+01
 -1       113 6.32410E+01
 -1       114 6.32410E+01
 -1       115 6.51040E+01
 -1       116 6.51040E+01
 -1       117 6.60359E+01
 -1       118 6.60359E+01
 -1       119 6.75662E+01
 -1       120 6.75662E+01
 -1       121 6.75662E+01
 -1       122 6.75662E+01
 -1       123 5.25043E+01
 -1       124 5.25043E+01
 -1       125 5.25043E+01
 -1       126 5.25043E+01
 -3
    1PSTEP                        13           4           3          
  100CL  104 2.40000E-01         126                     1    4           1
 -4  DISP        4    1
 -5  D1          1    2    1    0
 -5  D2          1    2    2    0
 -5  D3          1    2    3    0
 -5  ALL         1    2    0    0    1ALL
 -1         1 0.00000E+00 0.00000E+00 0.00000E+00
 -1         2 0.00000E+00 0.00000E+00 0.00000E+00
 -1         3 7.70420E-04 0.00000E+00 5.60665E-05
 -1         4 9.79473E-04 0.00000E+00-9.69455E-04
 -1         5 0.00000E+00 0.00000E+00 0.00000E+00
 -1         6 0.00000E+00 0.00000E+00 0.00000E+00
 -1         7 7.70479E-04 0.00000E+00 5.60128E-05
 -1         8 9.79360E-04 0.00000E+00-9.69418E-04
 -1         9 2.56688E-03 0.00000E+00 1.09409E-04
 -1        10 2.62539E-03 0.00000E+00-1.71382E-03
 -1        11 2.56690E-03 0.00000E+00 1.09387E-04
 -1        12 2.62522E-03 0.00000E+00-1.71377E-03
 -1        13 4.93670E-03 0.00000E+00 1.37580E-04
 -1        14 4.93574E-03 0.00000E+00-2.19965E-03
 -1        15 4.93677E-03 0.00000E+00 1.37558E-04
 -1        16 4.93563E-03 0.00000E+00-2.19963E-03
 -1        17 7.67737E-03 0.00000E+00 1.45739E-04
 -1        18 7.61433E-03 0.00000E+00-2.47515E-03
 -1        19 7.67737E-03 0.00000E+00 1.45697E-04
 -1        20 7.61411E-03 0.00000E+00-2.47513E-03
 -1        21 1.05593E-02 0.00000E+00 1.43822E-04
 -1        22 1.04556E-02 0.00000E+00-2.56321E-03
 -1        23 1.05593E-02 0.00000E+00 1.43807E-04
 -1        24 1.04553E-02 0.00000E+00-2.56323E-03
 -1        25 1.33962E-02 0.00000E+00 1.38020E-04
 -1        26 1.32714E-02 0.00000E+00-2.49895E-03
 -1        27 1.33963E-02 0.00000E+00 1.38030E-04
 -1        28 1.32712E-02 0.00000E+00-2.49896E-03
 -1        29 1.60549E-02 0.00000E+00 1.32729E-04
 -1        30 1.59244E-02 0.00000E+00-2.32355E-03
 -1        31 1.60549E-02 0.00000E+00 1.32737E-04
 -1        32 1.59242E-02 0.00000E+00-2.32355E-03
 -1        33 1.84514E-02 0.00000E+00 1.31555E-04
 -1        34 1.83261E-02 0.00000E+00-2.07775E-03
 -1        35 1.84515E-02 0.00000E+00 1.31574E-04
 -1        36 1.83259E-02 0.00000E+00-2.07774E-03
 -1        37 2.05524E-02 0.00000E+00 1.34653E-04
 -1        38 2.04382E-02 0.00000E+00-1.79485E-03
 -1        39 2.05525E-02 0.00000E+00 1.34694E-04
 -1        40 2.04380E-02 0.00000E+00-1.79483E-03
 -1        41 2.23585E-02 0.00000E+00 1.40459E-04
 -1        42 2.22547E-02 0.00000E+00-1.48891E-03
 -1        43 2.23585E-02 0.00000E+00 1.40495E-04
 -1        44 2.22545E-02 0.00000E+00-1.48890E-03
 -1        45 2.38628E-02 0.00000E+00 1.49564E-04
 -1        46 2.37645E-02 0.00000E+00-1.15367E-03
 -1        47 2.38628E-02 0.00000E+00 1.49589E-04
 -1        48 2.37643E-02 0.00000E+00-1.15364E-03
 -1        49 2.50243E-02 0.00000E+00 1.63974E-04
 -1        50 2.49300E-02 0.00000E+00-7.82195E-04
 -1        51 2.50244E-02 0.00000E+00 1.64002E-04
 -1        52 2.49298E-02 0.00000E+00-7.82152E-04
 -1        53 2.57931E-02 0.00000E+00 1.84451E-04
 -1        54 2.57041E-02 0.00000E+00-3.85591E-04
 -1        55 2.57931E-02 0.00000E+00 1.84448E-04
 -1        56 2.57039E-02 0.00000E+00-3.85653E-04
 -1        57 2.61573E-02 0.00000E+00 2.10933E-04
 -1        58 2.60744E-02 0.00000E+00 1.25292E-05
 -1        59 2.61574E-02 0.00000E+00 2.10916E-04
 -1        60 2.60743E-02 0.00000E+00 1.24346E-05
 -1        61 2.61322E-02 0.00000E+00 2.41724E-04
 -1        62 2.60591E-02 0.00000E+00 3.84645E-04
 -1        63 2.61322E-02 0.00000E+00 2.41729E-04
 -1        64 2.60588E-02 0.00000E+00 3.84563E-04
 -1        65 2.57685E-02 0.00000E+00 2.74018E-04
 -1        66 2.57083E-02 0.00000E+00 7.05203E-04
 -1        67 2.57685E-02 0.00000E+00 2.74011E-04
 -1        68 2.57083E-02 0.00000E+00 7.05119E-04
 -1        69 2.51421E-02 0.00000E+00 3.04941E-04
 -1        70 2.50982E-02 0.00000E+00 9.55894E-04
 -1        71 2.51422E-02 0.00000E+00 3.04997E-04
 -1        72 2.50981E-02 0.00000E+00 9.55956E-04
 -1        73 2.43412E-02 0.00000E+00 3.28401E-04
 -1        74 2.43068E-02 0.00000E+00 1.13408E-03
 -1        75 2.43412E-02 0.00000E+00 3.28451E-04
 -1        76 2.43067E-02 0.00000E+00 1.13394E-03
 -1        77 2.34257E-02 0.00000E+00 3.52111E-04
 -1        78 2.34228E-02 0.00000E+00 1.24133E-03
 -1        79 2.34258E-02 0.00000E+00 3.52134E-04
 -1        80 2.34226E-02 0.00000E+00 1.24137E-03
 -1        81 2.24964E-02 0.00000E+00 3.58227E-04
 -1        82 2.24345E-02 0.00000E+00 1.32046E-03
 -1        83 2.24962E-02 0.00000E+00 3.58257E-04
 -1        84 2.24345E-02 0.00000E+00 1.32052E-03
 -1        85 0.00000E+00 0.00000E+00 0.00000E+00
 -1        86 1.07776E-03 0.00000E+00 1.08435E-03
 -1        87 0.00000E+00 0.00000E+00 0.00000E+00
 -1        88 1.07783E-03 0.00000E+00 1.08439E-03
 -1        89 2.77261E-03 0.00000E+00 1.92274E-03
 -1        90 2.77275E-03 0.00000E+00 1.92278E-03
 -1        91 5.12148E-03 0.00000E+00 2.46431E-03
 -1        92 5.12164E-03 0.00000E+00 2.46431E-03
 -1        93 7.82693E-03 0.00000E+00 2.76027E-03
 -1        94 7.82706E-03 0.00000E+00 2.76022E-03
 -1        95 1.06736E-02 0.00000E+00 2.84708E-03
 -1        96 1.06738E-02 0.00000E+00 2.84706E-03
 -1        97 1.34740E-02 0.00000E+00 2.77341E-03
 -1        98 1.34741E-02 0.00000E+00 2.77341E-03
 -1        99 1.61005E-02 0.00000E+00 2.58927E-03
 -1       100 1.61007E-02 0.00000E+00 2.58928E-03
 -1       101 1.84714E-02 0.00000E+00 2.34120E-03
 -1       102 1.84716E-02 0.00000E+00 2.34121E-03
 -1       103 2.05517E-02 0.00000E+00 2.06385E-03
 -1       104 2.05518E-02 0.00000E+00 2.06386E-03
 -1       105 2.23386E-02 0.00000E+00 1.76995E-03
 -1       106 2.23387E-02 0.00000E+00 1.76997E-03
 -1       107 2.38242E-02 0.00000E+00 1.45348E-03
 -1       108 2.38244E-02 0.00000E+00 1.45346E-03
 -1       109 2.49704E-02 0.00000E+00 1.11018E-03
 -1       110 2.49706E-02 0.00000E+00 1.11009E-03
 -1       111 2.57308E-02 0.00000E+00 7.53990E-04
 -1       112 2.57309E-02 0.00000E+00 7.53960E-04
 -1       113 2.60965E-02 0.00000E+00 4.07429E-04
 -1       114 2.60966E-02 0.00000E+00 4.07435E-04
 -1       115 2.60805E-02 0.00000E+00 9.41157E-05
 -1       116 2.60805E-02 0.00000E+00 9.40398E-05
 -1       117 2.57311E-02 0.00000E+00-1.62205E-04
 -1       118 2.57311E-02 0.00000E+00-1.62301E-04
 -1       119 2.51232E-02 0.00000E+00-3.47677E-04
 -1       120 2.51233E-02 0.00000E+00-3.47788E-04
 -1       121 2.43300E-02 0.00000E+00-4.63678E-04
 -1       122 2.43300E-02 0.00000E+00-4.63614E-04
 -1       123 2.34507E-02 0.00000E+00-5.23367E-04
 -1       124 2.34507E-02 0.00000E+00-5.23364E-04
 -1       125 2.24432E-02 0.00000E+00-5.17895E-04
 -1       126 2.24433E-02 0.00000E+00-5.17854E-04
 -3
    1PSTEP                        14           4           3          
  100CL  104 2.40000E-01         126                     1    4           1
 -4  STRESS      6    1
 -5  SXX         1    4    1    1
 -5  SYY         1    4    2    2
 -5  SZZ         1    4    3    3
 -5  SXY         1    4    1    2
 -5  SYZ         1    4    2    3
 -5  SZX         1    4    3    1
 -1         1-4.37138E+03-4.47320E+03-1.01220E+04 1.66807E-04-2.09284E-04 2.82810E+03
 -1         2 3.42598E+02 2.85958E+02 5.81373E+02-8.18592E-05 1.04788E-04 2.37662E+03
 -1         3 7.84027E+00 1.59565E+02 5.13289E+02 3.02046E-02-2.74160E-02 7.96206E+02
 -1         4-1.45128E+03-2.85736E+03-7.86715E+03-5.79607E-02 1.77582E-02 7.88183E+02
 -1         5-4.37123E+03-4.47304E+03-1.01217E+04 1.66716E-04-2.09259E-04 2.82777E+03
 -1         6 3.42369E+02 2.85715E+02 5.80803E+02-8.18359E-05 1.04783E-04 2.37679E+03
 -1         7 6.81636E+00 1.59106E+02 5.12762E+02 3.02045E-02-2.74160E-02 7.96252E+02
 -1         8-1.45310E+03-2.85810E+03-7.86775E+03-5.79603E-02 1.77581E-02 7.88200E+02
 -1         9 3.46351E+01 2.04387E+02 6.33155E+02 1.24734E-02-1.08069E-02 8.28596E+02
 -1        10-1.62517E+03-2.23485E+03-5.71476E+03-8.74156E-02 2.21089E-02 3.90088E+02
 -1        11 3.30422E+01 2.03747E+02 6.32615E+02 1.24732E-02-1.08069E-02 8.28636E+02
 -1        12-1.62733E+03-2.23581E+03-5.71576E+03-8.74147E-02 2.21087E-02 3.90295E+02
 -1        13 4.85426E+01 2.08981E+02 6.48054E+02 3.96309E-02-1.11059E-02 7.03915E+02
 -1        14-8.40458E+02-1.22089E+03-3.19364E+03-6.02952E-02 1.15218E-02 4.22594E+02
 -1        15 4.69655E+01 2.08280E+02 6.47286E+02 3.96306E-02-1.11059E-02 7.03923E+02
 -1        16-8.42661E+02-1.22188E+03-3.19472E+03-6.02946E-02 1.15217E-02 4.22677E+02
 -1        17 4.14158E+01 2.05291E+02 6.46698E+02-1.89271E-04-2.11799E-02 6.14405E+02
 -1        18-3.78458E+02-4.60744E+02-1.14964E+03-1.12147E-01 8.79975E-03 4.06023E+02
 -1        19 3.95436E+01 2.04494E+02 6.45911E+02-1.89280E-04-2.11799E-02 6.14430E+02
 -1        20-3.80942E+02-4.61867E+02-1.15089E+03-1.12146E-01 8.79968E-03 4.06058E+02
 -1        21 2.92421E+01 1.94579E+02 6.23591E+02 4.72611E-03-7.67644E-03 4.93206E+02
 -1        22 2.98757E+01 1.74064E+02 5.55444E+02-1.18226E-01-6.84853E-03 3.89478E+02
 -1        23 2.72575E+01 1.93795E+02 6.22964E+02 4.72606E-03-7.67643E-03 4.93298E+02
 -1        24 2.72628E+01 1.72917E+02 5.54236E+02-1.18224E-01-6.84858E-03 3.89555E+02
 -1        25 2.05311E+01 1.76759E+02 5.71225E+02 1.35467E-02 5.33826E-03 3.59653E+02
 -1        26 3.36664E+02 6.42539E+02 1.81989E+03-1.00007E-01-1.22972E-03 3.41853E+02
 -1        27 1.87419E+01 1.76021E+02 5.70556E+02 1.35466E-02 5.33827E-03 3.59700E+02
 -1        28 3.34336E+02 6.41560E+02 1.81895E+03-1.00006E-01-1.22974E-03 3.41901E+02
 -1        29 7.62595E+00 1.53058E+02 5.02960E+02 1.06413E-02 3.95022E-03 2.32009E+02
 -1        30 5.36023E+02 9.42722E+02 2.63223E+03-1.00959E-01-3.38983E-04 2.73089E+02
 -1        31 5.82544E+00 1.52297E+02 5.02226E+02 1.06412E-02 3.95022E-03 2.32051E+02
 -1        32 5.33719E+02 9.41749E+02 2.63128E+03-1.00957E-01-3.38998E-04 2.73103E+02
 -1        33-3.72000E+00 1.28791E+02 4.31535E+02 2.55781E-02 9.67622E-03 1.30833E+02
 -1        34 6.47182E+02 1.10165E+03 3.05777E+03-9.74478E-02 3.09018E-03 2.02017E+02
 -1        35-5.65367E+00 1.28005E+02 4.30853E+02 2.55778E-02 9.67621E-03 1.30846E+02
 -1        36 6.44662E+02 1.10060E+03 3.05678E+03-9.74466E-02 3.09018E-03 2.01993E+02
 -1        37-3.05456E+00 1.07721E+02 3.59127E+02 8.52434E-03 2.11060E-02 8.16488E+01
 -1        38 7.18945E+02 1.18126E+03 3.25444E+03-1.06599E-01 9.07073E-03 1.57805E+02
 -1        39-4.89725E+00 1.06954E+02 3.58413E+02 8.52426E-03 2.11060E-02 8.15783E+01
 -1        40 7.16549E+02 1.18024E+03 3.25343E+03-1.06598E-01 9.07079E-03 1.57706E+02
 -1        41 4.60981E+00 9.07316E+01 2.93709E+02-9.07249E-03 1.87814E-02 8.39644E+01
 -1        42 7.84048E+02 1.25006E+03 3.42166E+03-1.14493E-01 4.02339E-03 1.48598E+02
 -1        43 2.95932E+00 9.00037E+01 2.92933E+02-9.07241E-03 1.87814E-02 8.40096E+01
 -1        44 7.81891E+02 1.24916E+03 3.42081E+03-1.14492E-01 4.02340E-03 1.48563E+02
 -1        45 7.91758E+00 7.80525E+01 2.47476E+02 2.46896E-02 1.31787E-02 9.33442E+01
 -1        46 8.47178E+02 1.33826E+03 3.65784E+03-9.51814E-02 1.60761E-02 1.44207E+02
 -1        47 6.16121E+00 7.72846E+01 2.46676E+02 2.46894E-02 1.31787E-02 9.35661E+01
 -1        48 8.44775E+02 1.33728E+03 3.65697E+03-9.51803E-02 1.60760E-02 1.44362E+02
 -1        49 1.14011E+01 7.30411E+01 2.27032E+02 3.33587E-02 1.43360E-02 6.03503E+01
 -1        50 9.03343E+02 1.42197E+03 3.88645E+03-7.56001E-02 2.24266E-02 1.02075E+02
 -1        51 9.62826E+00 7.22377E+01 2.26133E+02 3.33585E-02 1.43360E-02 6.04753E+01
 -1        52 9.00866E+02 1.42079E+03 3.88496E+03-7.55993E-02 2.24265E-02 1.02188E+02
 -1        53 2.13690E+01 7.81187E+01 2.33833E+02-4.04533E-03-1.63733E-03-9.00946E+00
 -1        54 9.30661E+02 1.45381E+03 3.96723E+03-7.68042E-02-3.23716E-02 2.40724E+01
 -1        55 2.01243E+01 7.75252E+01 2.33101E+02-4.04530E-03-1.63733E-03-9.05332E+00
 -1        56 9.28834E+02 1.45285E+03 3.96584E+03-7.68036E-02-3.23713E-02 2.38689E+01
 -1        57 2.52330E+01 8.59501E+01 2.56726E+02 3.37916E-02-8.95450E-03-8.55366E+01
 -1        58 8.93862E+02 1.39838E+03 3.81568E+03-8.23725E-02-4.91961E-02-5.96394E+01
 -1        59 2.36887E+01 8.52965E+01 2.56101E+02 3.37914E-02-8.95453E-03-8.57228E+01
 -1        60 8.91400E+02 1.39730E+03 3.81453E+03-8.23715E-02-4.91958E-02-6.00270E+01
 -1        61 4.04902E+01 9.99972E+01 2.89422E+02-1.54118E-02 2.57234E-03-1.51924E+02
 -1        62 8.18772E+02 1.26366E+03 3.43294E+03-1.26039E-01-4.24939E-02-1.29072E+02
 -1        63 3.89944E+01 9.93705E+01 2.88827E+02-1.54117E-02 2.57234E-03-1.51921E+02
 -1        64 8.16483E+02 1.26270E+03 3.43201E+03-1.26037E-01-4.24937E-02-1.29212E+02
 -1        65 6.17694E+01 1.14086E+02 3.16484E+02 3.74706E-02-3.22711E-03-1.90245E+02
 -1        66 7.05539E+02 1.05968E+03 2.85451E+03-3.93267E-02-4.30777E-02-1.62784E+02
 -1        67 6.13846E+01 1.13986E+02 3.16538E+02 3.74705E-02-3.22706E-03-1.90048E+02
 -1        68 7.04260E+02 1.05932E+03 2.85459E+03-3.93264E-02-4.30778E-02-1.62810E+02
 -1        69 6.68530E+01 1.11228E+02 3.02899E+02 4.46303E-02 2.82631E-02-1.92232E+02
 -1        70 5.89922E+02 8.28924E+02 2.18983E+03-5.40670E-02 3.19664E-02-1.65208E+02
 -1        71 6.57103E+01 1.10814E+02 3.02667E+02 4.46301E-02 2.82631E-02-1.92061E+02
 -1        72 5.87734E+02 8.27914E+02 2.18864E+03-5.40665E-02 3.19664E-02-1.65287E+02
 -1        73 9.36827E+01 1.18969E+02 3.02921E+02 6.91203E-03 2.57657E-02-1.84577E+02
 -1        74 3.94221E+02 5.62196E+02 1.48764E+03-7.13246E-02-7.19491E-02-1.08062E+02
 -1        75 9.26676E+01 1.18487E+02 3.02332E+02 6.91196E-03 2.57656E-02-1.84829E+02
 -1        76 3.92512E+02 5.61422E+02 1.48676E+03-7.13238E-02-7.19486E-02-1.08732E+02
 -1        77 4.60342E+01 7.96361E+01 2.19190E+02 6.57895E-02 1.19301E-02-1.24790E+02
 -1        78 5.29146E+02 4.92969E+02 1.11865E+03-7.91617E-02 1.80185E-02-1.50512E+02
 -1        79 4.48885E+01 7.91185E+01 2.18611E+02 6.57892E-02 1.19300E-02-1.25085E+02
 -1        80 5.26565E+02 4.92134E+02 1.11844E+03-7.91607E-02 1.80185E-02-1.50316E+02
 -1        81 1.14047E+02 8.68419E+01 1.76497E+02-1.05828E-01 1.53495E-02-3.21766E+01
 -1        82-1.52303E+02 1.67809E+02 7.13788E+02-1.15179E-02 3.27882E-02-8.83801E+01
 -1        83 1.13512E+02 8.66331E+01 1.76330E+02-1.05828E-01 1.53500E-02-3.31757E+01
 -1        84-1.50220E+02 1.68779E+02 7.14942E+02-1.15181E-02 3.27881E-02-8.78633E+01
 -1        85 5.13068E+03 5.00370E+03 1.20979E+04 1.42649E-04 1.19772E-04 3.54995E+03
 -1        86 1.41243E+03 3.16403E+03 9.42930E+03 3.38057E-02 1.83026E-02 1.22801E+03
 -1        87 5.13086E+03 5.00386E+03 1.20983E+04 1.42656E-04 1.19782E-04 3.55018E+03
 -1        88 1.41249E+03 3.16412E+03 9.42955E+03 3.38057E-02 1.83026E-02 1.22796E+03
 -1        89 1.57560E+03 2.57496E+03 7.18865E+03 7.23202E-02 2.41981E-02 7.64794E+02
 -1        90 1.57433E+03 2.57438E+03 7.18798E+03 7.23198E-02 2.41980E-02 7.64747E+02
 -1        91 8.87845E+02 1.62378E+03 4.60650E+03 8.43930E-02 1.58510E-03 7.17098E+02
 -1        92 8.86694E+02 1.62316E+03 4.60558E+03 8.43926E-02 1.58505E-03 7.17002E+02
 -1        93 4.21176E+02 8.63508E+02 2.48629E+03 6.54303E-02-2.65891E-02 5.57941E+02
 -1        94 4.19746E+02 8.62859E+02 2.48554E+03 6.54299E-02-2.65890E-02 5.57985E+02
 -1        95-3.01114E+00 2.08022E+02 7.02829E+02 8.34009E-02-1.23996E-02 3.91536E+02
 -1        96-4.54070E+00 2.07429E+02 7.02384E+02 8.34003E-02-1.23995E-02 3.91625E+02
 -1        97-3.16263E+02-2.92484E+02-6.55766E+02 7.63093E-02-1.39954E-03 2.31371E+02
 -1        98-3.17506E+02-2.92972E+02-6.56147E+02 7.63089E-02-1.39952E-03 2.31404E+02
 -1        99-5.34711E+02-6.39996E+02-1.59068E+03 7.36350E-02 6.04623E-03 1.03317E+02
 -1       100-5.35995E+02-6.40529E+02-1.59117E+03 7.36346E-02 6.04625E-03 1.03378E+02
 -1       101-6.66442E+02-8.49870E+02-2.15250E+03 9.47286E-02 5.63617E-03 1.57495E+01
 -1       102-6.67905E+02-8.50503E+02-2.15314E+03 9.47279E-02 5.63618E-03 1.57857E+01
 -1       103-7.33084E+02-9.69629E+02-2.48046E+03 7.18537E-02 4.84471E-03-2.03882E+01
 -1       104-7.34430E+02-9.70201E+02-2.48102E+03 7.18533E-02 4.84468E-03-2.04393E+01
 -1       105-7.80560E+02-1.06985E+03-2.76229E+03 4.01196E-02 9.60263E-03-1.16033E+01
 -1       106-7.81680E+02-1.07038E+03-2.76292E+03 4.01195E-02 9.60263E-03-1.15424E+01
 -1       107-8.40110E+02-1.18602E+03-3.08348E+03 7.16490E-02-1.14994E-02 7.19121E+00
 -1       108-8.41345E+02-1.18670E+03-3.08449E+03 7.16486E-02-1.14992E-02 7.47775E+00
 -1       109-8.90795E+02-1.28174E+03-3.34580E+03 8.63923E-02-4.48729E-02-1.79191E+00
 -1       110-8.91951E+02-1.28225E+03-3.34635E+03 8.63918E-02-4.48727E-02-1.55214E+00
 -1       111-8.98466E+02-1.30453E+03-3.41257E+03 3.15287E-02-1.55157E-02-3.41530E+01
 -1       112-8.99010E+02-1.30464E+03-3.41239E+03 3.15286E-02-1.55157E-02-3.41210E+01
 -1       113-8.58470E+02-1.23835E+03-3.23571E+03 6.75073E-02 2.99056E-03-7.04673E+01
 -1       114-8.59284E+02-1.23876E+03-3.23625E+03 6.75071E-02 2.99052E-03-7.05734E+01
 -1       115-7.50724E+02-1.07334E+03-2.80192E+03 1.87576E-02-3.85087E-02-1.03837E+02
 -1       116-7.51679E+02-1.07388E+03-2.80276E+03 1.87575E-02-3.85085E-02-1.03767E+02
 -1       117-5.81644E+02-8.27445E+02-2.16161E+03 8.26636E-03-4.83568E-02-1.22695E+02
 -1       118-5.81114E+02-8.27261E+02-2.16153E+03 8.26628E-03-4.83568E-02-1.22274E+02
 -1       119-4.18873E+02-5.66168E+02-1.46138E+03 6.84207E-02-5.68114E-02-1.39886E+02
 -1       120-4.18994E+02-5.66005E+02-1.46072E+03 6.84204E-02-5.68114E-02-1.39358E+02
 -1       121-1.80432E+02-2.92509E+02-7.92616E+02 1.72306E-02 3.26674E-02-1.30569E+02
 -1       122-1.80378E+02-2.92336E+02-7.92096E+02 1.72306E-02 3.26675E-02-1.30735E+02
 -1       123-2.62093E+02-1.63815E+02-2.82679E+02 2.80549E-02 1.70494E-03-2.08619E+02
 -1       124-2.61357E+02-1.63529E+02-2.82459E+02 2.80551E-02 1.70500E-03-2.08462E+02
 -1       125 7.43788E+02 3.52350E+02 4.34345E+02 4.84526E-02 2.11747E-02-4.02975E+02
 -1       126 7.40709E+02 3.51135E+02 4.33364E+02 4.84520E-02 2.11745E-02-4.02902E+02
 -3
    1PSTEP                        15           4           3          
  100CL  104 2.40000E-01         126                     1    4           1
 -4  TOSTRAIN    6    1
 -5  EXX         1    4    1    1
 -5  EYY         1    4    2    2
 -5  EZZ         1    4    3    3
 -5  EXY         1    4    1    2
 -5  EYZ         1    4    2    3
 -5  EZX         1    4    3    1
 -1         1-3.65860E-05-7.16345E-15-1.90453E-02 3.37778E-10 5.16474E-13 9.79455E-03
 -1         2-3.74395E-05-2.42865E-15 1.20316E-03-2.90241E-10-7.08285E-15 7.70402E-03
 -1         3-7.87573E-04 1.28298E-14 1.44726E-03 1.00694E-07-8.69930E-08 2.54137E-03
 -1         4 4.37079E-03 3.79071E-14-1.66508E-02-1.89748E-07 5.49575E-08 3.10225E-03
 -1         5-3.65775E-05-7.16345E-15-1.90447E-02 3.37652E-10 5.16475E-13 9.79342E-03
 -1         6-3.74383E-05-2.42865E-15 1.20211E-03-2.90211E-10-7.08257E-15 7.70462E-03
 -1         7-7.89366E-04 1.28298E-14 1.44705E-03 1.00694E-07-8.69930E-08 2.54148E-03
 -1         8 4.36730E-03 3.79071E-14-1.66504E-02-1.89747E-07 5.49577E-08 3.10223E-03
 -1         9-8.21462E-04-2.38119E-14 1.68461E-03 4.22316E-08-3.35224E-08 2.60302E-03
 -1        10 1.82024E-03 1.30322E-13-1.14335E-02-2.87215E-07 6.22403E-08 1.79644E-03
 -1        11-8.24575E-04-2.38119E-14 1.68494E-03 4.22315E-08-3.35224E-08 2.60304E-03
 -1        12 1.81629E-03 1.30322E-13-1.14336E-02-2.87214E-07 6.22403E-08 1.79699E-03
 -1        13-7.72102E-04 9.71025E-15 1.67022E-03 1.30664E-07-3.00064E-08 2.17662E-03
 -1        14 1.06759E-03 3.63812E-14-6.33662E-03-1.97671E-07 2.84022E-08 1.74971E-03
 -1        15-7.74932E-04 9.71025E-15 1.67000E-03 1.30664E-07-3.00065E-08 2.17653E-03
 -1        16 1.06364E-03 3.63812E-14-6.33692E-03-1.97671E-07 2.84023E-08 1.74982E-03
 -1        17-7.54452E-04-2.49878E-14 1.64248E-03 3.33678E-09-6.86106E-08 1.87429E-03
 -1        18 1.12180E-04 2.15210E-13-2.10402E-03-3.65696E-07 9.50101E-09 1.45068E-03
 -1        19-7.57949E-04-2.49878E-14 1.64251E-03 3.33673E-09-6.86106E-08 1.87420E-03
 -1        20 1.07752E-04 2.15210E-13-2.10444E-03-3.65694E-07 9.50140E-09 1.45059E-03
 -1        21-7.14478E-04-3.64571E-14 1.55789E-03 1.67706E-08-2.40310E-08 1.48256E-03
 -1        22-6.06347E-04 2.42295E-13 1.36298E-03-3.82443E-07-4.29557E-08 1.16254E-03
 -1        23-7.18411E-04-3.64571E-14 1.55842E-03 1.67705E-08-2.40310E-08 1.48263E-03
 -1        24-6.11137E-04 2.42295E-13 1.36279E-03-3.82441E-07-4.29557E-08 1.16255E-03
 -1        25-6.34591E-04-2.57501E-14 1.40008E-03 4.29609E-08 1.96046E-08 1.06366E-03
 -1        26-1.10428E-03 1.65465E-13 3.89612E-03-3.24301E-07-2.10626E-08 8.43058E-04
 -1        27-6.38025E-04-2.57501E-14 1.40031E-03 4.29608E-08 1.96047E-08 1.06362E-03
 -1        28-1.10869E-03 1.65465E-13 3.89627E-03-3.24299E-07-2.10627E-08 8.42978E-04
 -1        29-5.53628E-04-2.67111E-14 1.21491E-03 3.37979E-08 1.44916E-08 6.68771E-04
 -1        30-1.40116E-03 1.71771E-13 5.50015E-03-3.27550E-07-1.71453E-08 5.41279E-04
 -1        31-5.57022E-04-2.67111E-14 1.21500E-03 3.37978E-08 1.44916E-08 6.68739E-04
 -1        32-1.40550E-03 1.71771E-13 5.50024E-03-3.27548E-07-1.71453E-08 5.41112E-04
 -1        33-4.77765E-04-2.05915E-14 1.03262E-03 8.15092E-08 3.50160E-08 3.59727E-04
 -1        34-1.52954E-03 1.47574E-13 6.32152E-03-3.16725E-07-4.00938E-09 3.02632E-04
 -1        35-4.81506E-04-2.05915E-14 1.03295E-03 8.15089E-08 3.50160E-08 3.59590E-04
 -1        36-1.53432E-03 1.47574E-13 6.32169E-03-3.16723E-07-4.00935E-09 3.02338E-04
 -1        37-3.91123E-04-2.14804E-14 8.53829E-04 2.48669E-08 6.94759E-08 2.18371E-04
 -1        38-1.53951E-03 1.94734E-13 6.67884E-03-3.47142E-07 1.58180E-08 1.89649E-04
 -1        39-3.94603E-04-2.14804E-14 8.53981E-04 2.48668E-08 6.94759E-08 2.18002E-04
 -1        40-1.54397E-03 1.94734E-13 6.67885E-03-3.47140E-07 1.58181E-08 1.89159E-04
 -1        41-3.09968E-04-1.76308E-14 6.98277E-04-3.16235E-08 5.99963E-08 2.41010E-04
 -1        42-1.54708E-03 2.36904E-13 6.98680E-03-3.72054E-07 8.44059E-10 1.98741E-04
 -1        43-3.12977E-04-1.76308E-14 6.98132E-04-3.16234E-08 5.99963E-08 2.41064E-04
 -1        44-1.55117E-03 2.36904E-13 6.98694E-03-3.72053E-07 8.43975E-10 1.98493E-04
 -1        45-2.60038E-04-1.56645E-14 5.92444E-04 7.89233E-08 4.50154E-08 2.82041E-04
 -1        46-1.62690E-03 1.45008E-13 7.45187E-03-3.10426E-07 4.37715E-08 2.25604E-04
 -1        47-2.63304E-04-1.56645E-14 5.92381E-04 7.89230E-08 4.50155E-08 2.82680E-04
 -1        48-1.63157E-03 1.45008E-13 7.45224E-03-3.10424E-07 4.37713E-08 2.25968E-04
 -1        49-2.28622E-04-6.58481E-15 5.38445E-04 1.07340E-07 4.87351E-08 1.82390E-04
 -1        50-1.71060E-03 8.43805E-14 7.90142E-03-2.46917E-07 6.75504E-08 1.45130E-04
 -1        51-2.31805E-04-6.58481E-15 5.38148E-04 1.07340E-07 4.87350E-08 1.82741E-04
 -1        52-1.71484E-03 8.43805E-14 7.90049E-03-2.46916E-07 6.75503E-08 1.45427E-04
 -1        53-2.05807E-04-1.74971E-14 5.37376E-04-1.31985E-08-5.51882E-09-3.70138E-05
 -1        54-1.71748E-03 1.20217E-13 8.04760E-03-2.48173E-07-1.07063E-07-3.37129E-05
 -1        55-2.07915E-04-1.74971E-14 5.36915E-04-1.31985E-08-5.51882E-09-3.71759E-05
 -1        56-1.72030E-03 1.20217E-13 8.04622E-03-2.48173E-07-1.07063E-07-3.43804E-05
 -1        57-2.15811E-04-9.30647E-15 5.81928E-04 1.09775E-07-2.88120E-08-2.80346E-04
 -1        58-1.65348E-03 1.36962E-13 7.74137E-03-2.66989E-07-1.59568E-07-2.27285E-04
 -1        59-2.18728E-04-9.30647E-15 5.82016E-04 1.09775E-07-2.88121E-08-2.80964E-04
 -1        60-1.65800E-03 1.36962E-13 7.74116E-03-2.66988E-07-1.59568E-07-2.28547E-04
 -1        61-2.12590E-04-3.32607E-14 6.40959E-04-5.01848E-08 8.48342E-09-4.90327E-04
 -1        62-1.46029E-03 3.06962E-13 6.95968E-03-4.09765E-07-1.35794E-07-3.88610E-04
 -1        63-2.15412E-04-3.32607E-14 6.41066E-04-5.01847E-08 8.48344E-09-4.90315E-04
 -1        64-1.46461E-03 3.06962E-13 6.95978E-03-4.09763E-07-1.35795E-07-3.89057E-04
 -1        65-1.91432E-04 6.48469E-15 6.82626E-04 1.21622E-07-1.14290E-08-6.09676E-04
 -1        66-1.16716E-03 2.24940E-14 5.77624E-03-1.29098E-07-1.37826E-07-4.62225E-04
 -1        67-1.92357E-04 6.48469E-15 6.83120E-04 1.21622E-07-1.14288E-08-6.09023E-04
 -1        68-1.17017E-03 2.24940E-14 5.77767E-03-1.29097E-07-1.37826E-07-4.62275E-04
 -1        69-1.65886E-04 2.75524E-14 6.46181E-04 1.46266E-07 8.99857E-08-6.13368E-04
 -1        70-7.93817E-04 2.28661E-14 4.39679E-03-1.74177E-07 1.05505E-07-4.63948E-04
 -1        71-1.68250E-04 2.75524E-14 6.46754E-04 1.46266E-07 8.99857E-08-6.12781E-04
 -1        72-7.97661E-04 2.28661E-14 4.39623E-03-1.74176E-07 1.05505E-07-4.64174E-04
 -1        73-1.04232E-04-1.63206E-14 6.19239E-04 2.38519E-08 8.31935E-08-5.87314E-04
 -1        74-5.57340E-04 1.35105E-13 2.99887E-03-2.35598E-07-2.29302E-07-2.91522E-04
 -1        75-1.05992E-04-1.63206E-14 6.18911E-04 2.38517E-08 8.31935E-08-5.88114E-04
 -1        76-5.60453E-04 1.35105E-13 2.99861E-03-2.35597E-07-2.29301E-07-2.93645E-04
 -1        77-1.23440E-04 1.29311E-14 4.68209E-04 2.14443E-07 3.49720E-08-3.95168E-04
 -1        78 9.92560E-05 6.34389E-14 2.04102E-03-2.55933E-07 6.29722E-08-4.52153E-04
 -1        79-1.25523E-04 1.29311E-14 4.68048E-04 2.14443E-07 3.49717E-08-3.96092E-04
 -1        80 9.36118E-05 6.34389E-14 2.04303E-03-2.55932E-07 6.29723E-08-4.51383E-04
 -1        81 8.24581E-05 1.07302E-13 2.94787E-04-3.42878E-07 5.61145E-08-9.94141E-05
 -1        82-1.05165E-03 9.80508E-15 1.77876E-03-3.53822E-08 1.07103E-07-2.32717E-04
 -1        83 8.12908E-05 1.07302E-13 2.95041E-04-3.42878E-07 5.61163E-08-1.02636E-04
 -1        84-1.04797E-03 9.80508E-15 1.77929E-03-3.53827E-08 1.07102E-07-2.31093E-04
 -1        85-3.82930E-05-3.89651E-15 2.21156E-02 3.05354E-10 5.05166E-13 1.07774E-02
 -1        86-5.94593E-03 1.97220E-14 1.97885E-02 1.08072E-07 6.04788E-08 3.29710E-03
 -1        87-3.82991E-05-3.89651E-15 2.21163E-02 3.05373E-10 5.05167E-13 1.07781E-02
 -1        88-5.94603E-03 1.97220E-14 1.97890E-02 1.08071E-07 6.04790E-08 3.29690E-03
 -1        89-3.46317E-03 1.02667E-13 1.47229E-02 2.31383E-07 8.56308E-08 1.75179E-03
 -1        90-3.46544E-03 1.02667E-13 1.47226E-02 2.31382E-07 8.56310E-08 1.75157E-03
 -1        91-2.61179E-03 1.40761E-13 9.69103E-03 2.73478E-07 1.77998E-08 1.71599E-03
 -1        92-2.61351E-03 1.40761E-13 9.69004E-03 2.73478E-07 1.77998E-08 1.71566E-03
 -1        93-1.62108E-03 8.78993E-14 5.37784E-03 2.17098E-07-7.46059E-08 1.43209E-03
 -1        94-1.62365E-03 8.78993E-14 5.37757E-03 2.17098E-07-7.46059E-08 1.43212E-03
 -1        95-8.22610E-04 1.27665E-13 1.72699E-03 2.73001E-07-2.55252E-08 1.13442E-03
 -1        96-8.25685E-04 1.27665E-13 1.72749E-03 2.73000E-07-2.55252E-08 1.13452E-03
 -1        97-1.64903E-04 1.08848E-13-1.10079E-03 2.48039E-07 8.54849E-09 8.06405E-04
 -1        98-1.67364E-04 1.08848E-13-1.10043E-03 2.48038E-07 8.54845E-09 8.06365E-04
 -1        99 2.93906E-04 1.00538E-13-3.06210E-03 2.38212E-07 3.15283E-08 5.05218E-04
 -1       100 2.91453E-04 1.00538E-13-3.06194E-03 2.38212E-07 3.15284E-08 5.05291E-04
 -1       101 5.74014E-04 1.71819E-13-4.24773E-03 3.07024E-07 3.20903E-08 2.66395E-04
 -1       102 5.71308E-04 1.71819E-13-4.24775E-03 3.07023E-07 3.20903E-08 2.66394E-04
 -1       103 7.57265E-04 9.19326E-14-4.94689E-03 2.32939E-07 2.48911E-08 1.54392E-04
 -1       104 7.54768E-04 9.19326E-14-4.94686E-03 2.32938E-07 2.48909E-08 1.54123E-04
 -1       105 9.27148E-04 2.29480E-14-5.54812E-03 1.29383E-07 3.57628E-08 1.74034E-04
 -1       106 9.25215E-04 2.29480E-14-5.54845E-03 1.29383E-07 3.57628E-08 1.74180E-04
 -1       107 1.10682E-03 9.67459E-14-6.22752E-03 2.34015E-07-3.13559E-08 2.16077E-04
 -1       108 1.10496E-03 9.67459E-14-6.22857E-03 2.34014E-07-3.13557E-08 2.16999E-04
 -1       109 1.25335E-03 1.70577E-13-6.78563E-03 2.83833E-07-1.41602E-07 1.47227E-04
 -1       110 1.25124E-03 1.70577E-13-6.78572E-03 2.83833E-07-1.41602E-07 1.47976E-04
 -1       111 1.30587E-03 1.22368E-14-6.93619E-03 1.03109E-07-4.97039E-08-1.81412E-05
 -1       112 1.30447E-03 1.22368E-14-6.93526E-03 1.03109E-07-4.97039E-08-1.80662E-05
 -1       113 1.22186E-03 8.27515E-14-6.56768E-03 2.19609E-07 1.05906E-08-2.01374E-04
 -1       114 1.22054E-03 8.27515E-14-6.56812E-03 2.19609E-07 1.05905E-08-2.01734E-04
 -1       115 1.03511E-03 2.36323E-14-5.67097E-03 6.05182E-08-1.26241E-07-3.61132E-04
 -1       116 1.03378E-03 2.36323E-14-5.67197E-03 6.05180E-08-1.26241E-07-3.60905E-04
 -1       117 7.84294E-04 3.69244E-14-4.36084E-03 2.54038E-08-1.58125E-07-4.47282E-04
 -1       118 7.85450E-04 3.69244E-14-4.36121E-03 2.54036E-08-1.58125E-07-4.45918E-04
 -1       119 4.62044E-04 1.18406E-13-2.91112E-03 2.19879E-07-1.88023E-07-5.01611E-04
 -1       120 4.61162E-04 1.18406E-13-2.90953E-03 2.19878E-07-1.88023E-07-4.99846E-04
 -1       121 3.48875E-04 1.10920E-14-1.61540E-03 5.77813E-08 1.05463E-07-4.57560E-04
 -1       122 3.48468E-04 1.10920E-14-1.61424E-03 5.77813E-08 1.05463E-07-4.58079E-04
 -1       123-3.46135E-04 1.97099E-14-3.63249E-04 9.13517E-08 3.96427E-09-6.78831E-04
 -1       124-3.44658E-04 1.97099E-14-3.63485E-04 9.13519E-08 3.96438E-09-6.78344E-04
 -1       125 1.21657E-03-5.89197E-15 3.12203E-04 1.58536E-07 6.59877E-08-1.32263E-03
 -1       126 1.21055E-03-5.89197E-15 3.12949E-04 1.58535E-07 6.59872E-08-1.32228E-03
 -3
    1PSTEP                        16           4           3          
  100CL  104 2.40000E-01         126                     1    4           1
 -4  ERROR       1    1
 -5  STR(%)      1    1    0    0
 -1         1 6.82375E+01
 -1         2 6.82375E+01
 -1         3 6.96771E+01
 -1         4 6.96771E+01
 -1         5 6.82375E+01
 -1         6 6.82375E+01
 -1         7 6.96771E+01
 -1         8 6.96771E+01
 -1         9 7.19931E+01
 -1        10 7.19931E+01
 -1        11 7.19931E+01
 -1        12 7.19931E+01
 -1        13 7.19931E+01
 -1        14 7.19931E+01
 -1        15 7.19931E+01
 -1        16 7.19931E+01
 -1        17 6.68766E+01
 -1        18 6.68766E+01
 -1        19 6.68766E+01
 -1        20 6.68766E+01
 -1        21 5.11909E+01
 -1        22 4.76967E+01
 -1        23 5.11909E+01
 -1        24 4.76967E+01
 -1        25 7.65459E+01
 -1        26 4.07449E+01
 -1        27 7.65459E+01
 -1        28 4.07449E+01
 -1        29 8.25732E+01
 -1        30 4.75565E+01
 -1        31 8.25732E+01
 -1        32 4.75565E+01
 -1        33 8.25732E+01
 -1        34 5.00899E+01
 -1        35 8.25732E+01
 -1        36 5.00899E+01
 -1        37 7.37935E+01
 -1        38 5.21769E+01
 -1        39 7.37935E+01
 -1        40 5.21769E+01
 -1        41 6.99682E+01
 -1        42 5.41565E+01
 -1        43 6.99682E+01
 -1        44 5.41565E+01
 -1        45 6.81223E+01
 -1        46 5.51966E+01
 -1        47 6.81223E+01
 -1        48 5.51966E+01
 -1        49 6.63565E+01
 -1        50 5.51966E+01
 -1        51 6.63565E+01
 -1        52 5.51966E+01
 -1        53 6.52046E+01
 -1        54 5.47580E+01
 -1        55 6.52046E+01
 -1        56 5.47580E+01
 -1        57 6.82666E+01
 -1        58 5.46968E+01
 -1        59 6.82666E+01
 -1        60 5.46968E+01
 -1        61 7.23404E+01
 -1        62 5.44109E+01
 -1        63 7.23404E+01
 -1        64 5.44109E+01
 -1        65 7.66233E+01
 -1        66 5.28096E+01
 -1        67 7.66233E+01
 -1        68 5.28096E+01
 -1        69 7.87316E+01
 -1        70 4.93834E+01
 -1        71 7.87316E+01
 -1        72 4.93834E+01
 -1        73 1.12372E+02
 -1        74 4.71637E+01
 -1        75 1.12372E+02
 -1        76 4.71637E+01
 -1        77 1.12372E+02
 -1        78 6.24357E+01
 -1        79 1.12372E+02
 -1        80 6.24357E+01
 -1        81 6.24357E+01
 -1        82 6.24357E+01
 -1        83 6.24357E+01
 -1        84 6.24357E+01
 -1        85 6.07692E+01
 -1        86 6.07692E+01
 -1        87 6.07692E+01
 -1        88 6.07692E+01
 -1        89 5.40334E+01
 -1        90 5.40334E+01
 -1        91 5.07460E+01
 -1        92 5.07460E+01
 -1        93 4.13287E+01
 -1        94 4.13287E+01
 -1        95 5.11909E+01
 -1        96 5.11909E+01
 -1        97 7.65459E+01
 -1        98 7.65459E+01
 -1        99 8.25732E+01
 -1       100 8.25732E+01
 -1       101 8.25732E+01
 -1       102 8.25732E+01
 -1       103 7.37935E+01
 -1       104 7.37935E+01
 -1       105 6.99682E+01
 -1       106 6.99682E+01
 -1       107 6.81223E+01
 -1       108 6.81223E+01
 -1       109 6.63565E+01
 -1       110 6.63565E+01
 -1       111 6.52046E+01
 -1       112 6.52046E+01
 -1       113 6.82666E+01
 -1       114 6.82666E+01
 -1       115 7.23404E+01
 -1       116 7.23404E+01
 -1       117 7.66233E+01
 -1       118 7.66233E+01
 -1       119 7.87316E+01
 -1       120 7.87316E+01
 -1       121 1.12372E+02
 -1       122 1.12372E+02
 -1       123 1.12372E+02
 -1       124 1.12372E+02
 -1       125 4.29169E+01
 -1       126 4.29169E+01
 -3
    1PSTEP                        17           5           3          
  100CL  105 2.50000E-01         126                     1    5           1
 -4  DISP        4    1
 -5  D1          1    2    1    0
 -5  D2          1    2    2    0
 -5  D3          1    2    3    0
 -5  ALL         1    2    0    0    1ALL
 -1         1 0.00000E+00 0.00000E+00 0.00000E+00
 -1         2 0.00000E+00 0.00000E+00 0.00000E+00
 -1         3 7.98150E-04 0.00000E+00 3.76507E-05
 -1         4 1.03141E-03 0.00000E+00-1.05064E-03
 -1         5 0.00000E+00 0.00000E+00 0.00000E+00
 -1         6 0.00000E+00 0.00000E+00 0.00000E+00
 -1         7 7.98073E-04 0.00000E+00 3.76823E-05
 -1         8 1.03156E-03 0.00000E+00-1.05070E-03
 -1         9 2.70103E-03 0.00000E+00 6.31179E-05
 -1        10 2.77503E-03 0.00000E+00-1.86534E-03
 -1        11 2.70108E-03 0.00000E+00 6.31101E-05
 -1        12 2.77526E-03 0.00000E+00-1.86539E-03
 -1        13 5.19561E-03 0.00000E+00 6.25229E-05
 -1        14 5.20598E-03 0.00000E+00-2.40356E-03
 -1        15 5.19557E-03 0.00000E+00 6.25221E-05
 -1        16 5.20613E-03 0.00000E+00-2.40356E-03
 -1        17 8.06906E-03 0.00000E+00 4.20066E-05
 -1        18 8.01664E-03 0.00000E+00-2.73185E-03
 -1        19 8.06900E-03 0.00000E+00 4.20270E-05
 -1        20 8.01681E-03 0.00000E+00-2.73185E-03
 -1        21 1.11183E-02 0.00000E+00 1.05833E-05
 -1        22 1.10216E-02 0.00000E+00-2.87685E-03
 -1        23 1.11183E-02 0.00000E+00 1.05855E-05
 -1        24 1.10217E-02 0.00000E+00-2.87685E-03
 -1        25 1.41634E-02 0.00000E+00-2.12604E-05
 -1        26 1.40382E-02 0.00000E+00-2.85938E-03
 -1        27 1.41634E-02 0.00000E+00-2.12645E-05
 -1        28 1.40384E-02 0.00000E+00-2.85939E-03
 -1        29 1.70428E-02 0.00000E+00-4.60927E-05
 -1        30 1.69071E-02 0.00000E+00-2.71057E-03
 -1        31 1.70427E-02 0.00000E+00-4.60862E-05
 -1        32 1.69073E-02 0.00000E+00-2.71058E-03
 -1        33 1.96559E-02 0.00000E+00-6.14094E-05
 -1        34 1.95235E-02 0.00000E+00-2.47404E-03
 -1        35 1.96558E-02 0.00000E+00-6.14172E-05
 -1        36 1.95236E-02 0.00000E+00-2.47406E-03
 -1        37 2.19623E-02 0.00000E+00-6.67274E-05
 -1        38 2.18393E-02 0.00000E+00-2.18814E-03
 -1        39 2.19623E-02 0.00000E+00-6.67522E-05
 -1        40 2.18395E-02 0.00000E+00-2.18815E-03
 -1        41 2.39647E-02 0.00000E+00-6.30658E-05
 -1        42 2.38503E-02 0.00000E+00-1.86891E-03
 -1        43 2.39647E-02 0.00000E+00-6.30796E-05
 -1        44 2.38504E-02 0.00000E+00-1.86888E-03
 -1        45 2.56489E-02 0.00000E+00-5.11582E-05
 -1        46 2.55394E-02 0.00000E+00-1.50791E-03
 -1        47 2.56488E-02 0.00000E+00-5.11605E-05
 -1        48 2.55396E-02 0.00000E+00-1.50789E-03
 -1        49 2.69534E-02 0.00000E+00-2.98342E-05
 -1        50 2.68473E-02 0.00000E+00-1.09848E-03
 -1        51 2.69534E-02 0.00000E+00-2.98562E-05
 -1        52 2.68474E-02 0.00000E+00-1.09851E-03
 -1        53 2.78276E-02 0.00000E+00 2.48327E-06
 -1        54 2.77254E-02 0.00000E+00-6.55328E-04
 -1        55 2.78276E-02 0.00000E+00 2.45952E-06
 -1        56 2.77255E-02 0.00000E+00-6.55326E-04
 -1        57 2.82542E-02 0.00000E+00 4.47642E-05
 -1        58 2.81605E-02 0.00000E+00-2.11061E-04
 -1        59 2.82542E-02 0.00000E+00 4.47463E-05
 -1        60 2.81607E-02 0.00000E+00-2.11028E-04
 -1        61 2.82695E-02 0.00000E+00 9.33751E-05
 -1        62 2.81869E-02 0.00000E+00 2.00012E-04
 -1        63 2.82694E-02 0.00000E+00 9.33362E-05
 -1        64 2.81871E-02 0.00000E+00 2.00018E-04
 -1        65 2.79404E-02 0.00000E+00 1.44157E-04
 -1        66 2.78692E-02 0.00000E+00 5.57427E-04
 -1        67 2.79403E-02 0.00000E+00 1.44155E-04
 -1        68 2.78692E-02 0.00000E+00 5.57479E-04
 -1        69 2.73232E-02 0.00000E+00 1.91631E-04
 -1        70 2.72670E-02 0.00000E+00 8.50197E-04
 -1        71 2.73231E-02 0.00000E+00 1.91574E-04
 -1        72 2.72671E-02 0.00000E+00 8.50085E-04
 -1        73 2.64872E-02 0.00000E+00 2.34721E-04
 -1        74 2.64423E-02 0.00000E+00 1.07081E-03
 -1        75 2.64873E-02 0.00000E+00 2.34687E-04
 -1        76 2.64424E-02 0.00000E+00 1.07097E-03
 -1        77 2.55157E-02 0.00000E+00 2.71594E-04
 -1        78 2.55118E-02 0.00000E+00 1.18972E-03
 -1        79 2.55155E-02 0.00000E+00 2.71635E-04
 -1        80 2.55119E-02 0.00000E+00 1.18981E-03
 -1        81 2.45573E-02 0.00000E+00 2.80366E-04
 -1        82 2.44864E-02 0.00000E+00 1.26295E-03
 -1        83 2.45575E-02 0.00000E+00 2.80430E-04
 -1        84 2.44862E-02 0.00000E+00 1.26287E-03
 -1        85 0.00000E+00 0.00000E+00 0.00000E+00
 -1        86 1.11214E-03 0.00000E+00 1.11763E-03
 -1        87 0.00000E+00 0.00000E+00 0.00000E+00
 -1        88 1.11212E-03 0.00000E+00 1.11760E-03
 -1        89 2.90591E-03 0.00000E+00 1.97503E-03
 -1        90 2.90587E-03 0.00000E+00 1.97497E-03
 -1        91 5.38075E-03 0.00000E+00 2.51515E-03
 -1        92 5.38067E-03 0.00000E+00 2.51511E-03
 -1        93 8.22180E-03 0.00000E+00 2.80878E-03
 -1        94 8.22167E-03 0.00000E+00 2.80880E-03
 -1        95 1.12392E-02 0.00000E+00 2.89636E-03
 -1        96 1.12391E-02 0.00000E+00 2.89639E-03
 -1        97 1.42495E-02 0.00000E+00 2.81825E-03
 -1        98 1.42494E-02 0.00000E+00 2.81826E-03
 -1        99 1.70953E-02 0.00000E+00 2.62086E-03
 -1       100 1.70952E-02 0.00000E+00 2.62088E-03
 -1       101 1.96810E-02 0.00000E+00 2.35433E-03
 -1       102 1.96809E-02 0.00000E+00 2.35435E-03
 -1       103 2.19662E-02 0.00000E+00 2.05805E-03
 -1       104 2.19661E-02 0.00000E+00 2.05806E-03
 -1       105 2.39487E-02 0.00000E+00 1.74599E-03
 -1       106 2.39486E-02 0.00000E+00 1.74598E-03
 -1       107 2.56117E-02 0.00000E+00 1.40891E-03
 -1       108 2.56117E-02 0.00000E+00 1.40890E-03
 -1       109 2.68987E-02 0.00000E+00 1.04274E-03
 -1       110 2.68986E-02 0.00000E+00 1.04280E-03
 -1       111 2.77652E-02 0.00000E+00 6.63227E-04
 -1       112 2.77652E-02 0.00000E+00 6.63270E-04
 -1       113 2.81951E-02 0.00000E+00 3.00931E-04
 -1       114 2.81950E-02 0.00000E+00 3.00891E-04
 -1       115 2.82215E-02 0.00000E+00-1.41342E-05
 -1       116 2.82215E-02 0.00000E+00-1.40996E-05
 -1       117 2.79076E-02 0.00000E+00-2.70498E-04
 -1       118 2.79077E-02 0.00000E+00-2.70412E-04
 -1       119 2.73059E-02 0.00000E+00-4.64685E-04
 -1       120 2.73059E-02 0.00000E+00-4.64555E-04
 -1       121 2.64834E-02 0.00000E+00-5.89131E-04
 -1       122 2.64835E-02 0.00000E+00-5.89164E-04
 -1       123 2.55455E-02 0.00000E+00-6.40435E-04
 -1       124 2.55455E-02 0.00000E+00-6.40453E-04
 -1       125 2.45077E-02 0.00000E+00-6.38721E-04
 -1       126 2.45076E-02 0.00000E+00-6.38766E-04
 -3
    1PSTEP                        18           5           3          
  100CL  105 2.50000E-01         126                     1    5           1
 -4  STRESS      6    1
 -5  SXX         1    4    1    1
 -5  SYY         1    4    2    2
 -5  SZZ         1    4    3    3
 -5  SXY         1    4    1    2
 -5  SYZ         1    4    2    3
 -5  SZX         1    4    3    1
 -1         1-4.73860E+03-4.85064E+03-1.09436E+04-2.68892E-04 3.00566E-04 2.96259E+03
 -1         2 2.63196E+02 2.03069E+02 3.77213E+02 4.58547E-05-1.43195E-04 2.45974E+03
 -1         3 2.86089E+01 1.08478E+02 3.21335E+02-3.91943E-02 1.59540E-02 8.23516E+02
 -1         4-1.50797E+03-3.07823E+03-8.50696E+03 7.70953E-02-2.99484E-02 8.11672E+02
 -1         5-4.73885E+03-4.85092E+03-1.09442E+04-2.69050E-04 3.00605E-04 2.96303E+03
 -1         6 2.63315E+02 2.03209E+02 3.77537E+02 4.58851E-05-1.43200E-04 2.45952E+03
 -1         7 2.95756E+01 1.08868E+02 3.21710E+02-3.91945E-02 1.59540E-02 8.23521E+02
 -1         8-1.50555E+03-3.07725E+03-8.50611E+03 7.70961E-02-2.99484E-02 8.11719E+02
 -1         9 6.39376E+01 1.51924E+02 4.25599E+02 2.25305E-02-3.80692E-03 8.65986E+02
 -1        10-1.67443E+03-2.40742E+03-6.21800E+03 1.13562E-01-2.43167E-02 3.87641E+02
 -1        11 6.52951E+01 1.52462E+02 4.26035E+02 2.25306E-02-3.80691E-03 8.66046E+02
 -1        12-1.67234E+03-2.40643E+03-6.21683E+03 1.13563E-01-2.43169E-02 3.87516E+02
 -1        13 7.60955E+01 1.61064E+02 4.58541E+02-2.03272E-02-4.96334E-04 7.02992E+02
 -1        14-8.62365E+02-1.35237E+03-3.60027E+03 8.17019E-02 6.62408E-04 4.01367E+02
 -1        15 7.74239E+01 1.61665E+02 4.59223E+02-2.03273E-02-4.96321E-04 7.02888E+02
 -1        16-8.60117E+02-1.35134E+03-3.59911E+03 8.17028E-02 6.62344E-04 4.01264E+02
 -1        17 7.88947E+01 1.66304E+02 4.77833E+02-2.96564E-02 1.03651E-02 6.01384E+02
 -1        18-3.88199E+02-5.87554E+02-1.55910E+03 8.41215E-02-1.97406E-03 3.77467E+02
 -1        19 8.04983E+01 1.66996E+02 4.78538E+02-2.96566E-02 1.03652E-02 6.01319E+02
 -1        20-3.85807E+02-5.86533E+02-1.55809E+03 8.41224E-02-1.97411E-03 3.77395E+02
 -1        21 6.92496E+01 1.65285E+02 4.85219E+02-2.14816E-02 1.07459E-03 5.08382E+02
 -1        22 2.60039E+01 6.24389E+01 1.86212E+02 9.40752E-02-3.13364E-03 3.85227E+02
 -1        23 7.08657E+01 1.65947E+02 4.85812E+02-2.14817E-02 1.07460E-03 5.08374E+02
 -1        24 2.84173E+01 6.34634E+01 1.87213E+02 9.40762E-02-3.13366E-03 3.85207E+02
 -1        25 5.16010E+01 1.59271E+02 4.81728E+02-6.03798E-03-2.11285E-03 3.93594E+02
 -1        26 3.41540E+02 5.76915E+02 1.59383E+03 9.86214E-02-6.33824E-03 3.60365E+02
 -1        27 5.30561E+01 1.59903E+02 4.82379E+02-6.03802E-03-2.11284E-03 3.93511E+02
 -1        28 3.43725E+02 5.77854E+02 1.59478E+03 9.86224E-02-6.33832E-03 3.60273E+02
 -1        29 3.84140E+01 1.50107E+02 4.62318E+02-2.68944E-02 3.34929E-03 2.59950E+02
 -1        30 5.68741E+02 9.37403E+02 2.58098E+03 8.32265E-02-2.39228E-03 2.97197E+02
 -1        31 3.99352E+01 1.50757E+02 4.62959E+02-2.68946E-02 3.34931E-03 2.59822E+02
 -1        32 5.71016E+02 9.38369E+02 2.58193E+03 8.32274E-02-2.39235E-03 2.97087E+02
 -1        33 2.96619E+01 1.38265E+02 4.29601E+02-3.18303E-02-4.01179E-03 1.50244E+02
 -1        34 7.06100E+02 1.14313E+03 3.13879E+03 8.50458E-02-9.57161E-03 2.25867E+02
 -1        35 3.12569E+01 1.38911E+02 4.30156E+02-3.18306E-02-4.01178E-03 1.50188E+02
 -1        36 7.08528E+02 1.14416E+03 3.13981E+03 8.50468E-02-9.57165E-03 2.25817E+02
 -1        37 2.57865E+01 1.26803E+02 3.93561E+02-1.65813E-02-1.27697E-02 1.04284E+02
 -1        38 7.86533E+02 1.25191E+03 3.42613E+03 8.86980E-02-4.81179E-03 1.87413E+02
 -1        39 2.72738E+01 1.27435E+02 3.94176E+02-1.65814E-02-1.27697E-02 1.04328E+02
 -1        40 7.88829E+02 1.25295E+03 3.42731E+03 8.86989E-02-4.81177E-03 1.87462E+02
 -1        41 2.76175E+01 1.17478E+02 3.59434E+02-2.38471E-03-7.12199E-03 1.16376E+02
 -1        42 8.58938E+02 1.34932E+03 3.68396E+03 9.27056E-02 1.40959E-02 1.89438E+02
 -1        43 2.89112E+01 1.18061E+02 3.60083E+02-2.38473E-03-7.12200E-03 1.16461E+02
 -1        44 8.60986E+02 1.35023E+03 3.68496E+03 9.27065E-02 1.40960E-02 1.89595E+02
 -1        45 3.26727E+01 1.12507E+02 3.37193E+02-7.86154E-03-1.17842E-03 1.15173E+02
 -1        46 9.43054E+02 1.47410E+03 4.02454E+03 1.04082E-01 1.12787E-02 1.75676E+02
 -1        47 3.39999E+01 1.13066E+02 3.37727E+02-7.86158E-03-1.17843E-03 1.15075E+02
 -1        48 9.45239E+02 1.47495E+03 4.02520E+03 1.04083E-01 1.12787E-02 1.75669E+02
 -1        49 3.60972E+01 1.14687E+02 3.40488E+02-4.82056E-02-1.12380E-02 6.08936E+01
 -1        50 1.01090E+03 1.58557E+03 4.33680E+03 7.28912E-02-1.67858E-02 1.11684E+02
 -1        51 3.75660E+01 1.15294E+02 3.41035E+02-4.82059E-02-1.12380E-02 6.07308E+01
 -1        52 1.01336E+03 1.58660E+03 4.33777E+03 7.28921E-02-1.67859E-02 1.11514E+02
 -1        53 3.23800E+01 1.21852E+02 3.68172E+02-1.14409E-02-1.21812E-02-2.53718E+01
 -1        54 1.01938E+03 1.61655E+03 4.43451E+03 6.45536E-02 8.28522E-04 1.85832E+01
 -1        55 3.32885E+01 1.22249E+02 3.68582E+02-1.14409E-02-1.21812E-02-2.53661E+01
 -1        56 1.02111E+03 1.61737E+03 4.43554E+03 6.45541E-02 8.28562E-04 1.86685E+01
 -1        57 3.97222E+01 1.37020E+02 4.12035E+02-2.37411E-02-9.21117E-03-1.07299E+02
 -1        58 9.78233E+02 1.54721E+03 4.23912E+03 7.61026E-02 1.73109E-02-7.01955E+01
 -1        59 4.06852E+01 1.37415E+02 4.12382E+02-2.37412E-02-9.21119E-03-1.07243E+02
 -1        60 9.80319E+02 1.54810E+03 4.24003E+03 7.61033E-02 1.73110E-02-6.99777E+01
 -1        61 5.17908E+01 1.52421E+02 4.52502E+02-2.99007E-02-1.99316E-02-1.54282E+02
 -1        62 8.90663E+02 1.39407E+03 3.80497E+03 8.45340E-02 2.88253E-03-1.25207E+02
 -1        63 5.30389E+01 1.52979E+02 4.53109E+02-2.99009E-02-1.99316E-02-1.54412E+02
 -1        64 8.93095E+02 1.39513E+03 3.80610E+03 8.45349E-02 2.88252E-03-1.25276E+02
 -1        65 5.57295E+01 1.57159E+02 4.66105E+02-5.17243E-02-1.24685E-03-1.84234E+02
 -1        66 7.66821E+02 1.18949E+03 3.23404E+03 8.45291E-03 2.66575E-02-1.56033E+02
 -1        67 5.55828E+01 1.57075E+02 4.65964E+02-5.17243E-02-1.24683E-03-1.84290E+02
 -1        68 7.67801E+02 1.18975E+03 3.23393E+03 8.45291E-03 2.66575E-02-1.55916E+02
 -1        69 7.84762E+01 1.63939E+02 4.67404E+02-3.08613E-02-2.92720E-02-2.15869E+02
 -1        70 6.55057E+02 9.68341E+02 2.59656E+03 6.57102E-02-5.86562E-02-1.83735E+02
 -1        71 7.89986E+01 1.64119E+02 4.67475E+02-3.08613E-02-2.92720E-02-2.16008E+02
 -1        72 6.57316E+02 9.69449E+02 2.59801E+03 6.57107E-02-5.86564E-02-1.83743E+02
 -1        73 8.37098E+01 1.59189E+02 4.47449E+02 2.58560E-02-1.76779E-02-2.30688E+02
 -1        74 4.14644E+02 6.43500E+02 1.74182E+03 6.30765E-02 8.30984E-02-1.39785E+02
 -1        75 8.42112E+01 1.59537E+02 4.48111E+02 2.58561E-02-1.76780E-02-2.30646E+02
 -1        76 4.15902E+02 6.44314E+02 1.74329E+03 6.30770E-02 8.30991E-02-1.39139E+02
 -1        77 6.24317E+01 1.09045E+02 3.01145E+02-1.15325E-01 2.12634E-02-1.55956E+02
 -1        78 5.42687E+02 5.07715E+02 1.15480E+03 8.00028E-02 4.64027E-02-1.90786E+02
 -1        79 6.33547E+01 1.09575E+02 3.01984E+02-1.15325E-01 2.12633E-02-1.55483E+02
 -1        80 5.46283E+02 5.08946E+02 1.15531E+03 8.00035E-02 4.64025E-02-1.91140E+02
 -1        81 6.75027E+01 7.54296E+01 1.85036E+02 1.28257E-01 3.30064E-02-2.47218E+01
 -1        82-2.65971E+02 1.04497E+02 6.16436E+02-1.13616E-01-3.77127E-02-1.40311E+02
 -1        83 6.69544E+01 7.52499E+01 1.84997E+02 1.28257E-01 3.30071E-02-2.33074E+01
 -1        84-2.71722E+02 1.01591E+02 6.12498E+02-1.13615E-01-3.77121E-02-1.41912E+02
 -1        85 5.29239E+03 5.15734E+03 1.24793E+04-7.49381E-05-4.85627E-05 3.67054E+03
 -1        86 1.49001E+03 3.26838E+03 9.71546E+03-1.26845E-02-1.28967E-02 1.28329E+03
 -1        87 5.29227E+03 5.15722E+03 1.24790E+04-7.49411E-05-4.85615E-05 3.67045E+03
 -1        88 1.48932E+03 3.26801E+03 9.71488E+03-1.26845E-02-1.28967E-02 1.28340E+03
 -1        89 1.69215E+03 2.65696E+03 7.35157E+03-2.31515E-02-3.12060E-02 8.15905E+02
 -1        90 1.69303E+03 2.65731E+03 7.35185E+03-2.31516E-02-3.12060E-02 8.15971E+02
 -1        91 9.75278E+02 1.67181E+03 4.67963E+03-4.17757E-02-2.14373E-02 7.37280E+02
 -1        92 9.75872E+02 1.67216E+03 4.68023E+03-4.17758E-02-2.14373E-02 7.37269E+02
 -1        93 5.15107E+02 9.23098E+02 2.59190E+03-6.78792E-02 1.12349E-02 5.64524E+02
 -1        94 5.16049E+02 9.23591E+02 2.59261E+03-6.78795E-02 1.12349E-02 5.64447E+02
 -1        95 8.46650E+01 2.67572E+02 8.14351E+02-6.37249E-02 1.43570E-02 4.17828E+02
 -1        96 8.55633E+01 2.67955E+02 8.14728E+02-6.37252E-02 1.43570E-02 4.17821E+02
 -1        97-2.64760E+02-2.64200E+02-6.12643E+02-3.93438E-02 8.84347E-03 2.62822E+02
 -1        98-2.64088E+02-2.63928E+02-6.12409E+02-3.93439E-02 8.84349E-03 2.62743E+02
 -1        99-5.10803E+02-6.42986E+02-1.62388E+03-6.43123E-02 6.78361E-03 1.19787E+02
 -1       100-5.10022E+02-6.42642E+02-1.62352E+03-6.43126E-02 6.78368E-03 1.19654E+02
 -1       101-6.57790E+02-8.70185E+02-2.22770E+03-7.34816E-02 1.14656E-02 2.20386E+01
 -1       102-6.56912E+02-8.69810E+02-2.22733E+03-7.34819E-02 1.14656E-02 2.19668E+01
 -1       103-7.44080E+02-1.00220E+03-2.57666E+03-5.33076E-02 4.28831E-03-1.14964E+01
 -1       104-7.43371E+02-1.00195E+03-2.57652E+03-5.33078E-02 4.28831E-03-1.14687E+01
 -1       105-8.13955E+02-1.11897E+03-2.89062E+03-2.59466E-02-9.22438E-03 4.07186E+00
 -1       106-8.13491E+02-1.11880E+03-2.89050E+03-2.59466E-02-9.22440E-03 4.15939E+00
 -1       107-8.86906E+02-1.25214E+03-3.25377E+03-2.60730E-02-5.65271E-03 1.08398E+01
 -1       108-8.86352E+02-1.25180E+03-3.25320E+03-2.60731E-02-5.65271E-03 1.07297E+01
 -1       109-9.48900E+02-1.36096E+03-3.54777E+03-7.24627E-02 3.03949E-02-1.51886E+01
 -1       110-9.48256E+02-1.36061E+03-3.54724E+03-7.24629E-02 3.03951E-02-1.54211E+01
 -1       111-9.69969E+02-1.38397E+03-3.60205E+03-2.06429E-02 2.18916E-02-5.55171E+01
 -1       112-9.69991E+02-1.38411E+03-3.60248E+03-2.06429E-02 2.18916E-02-5.55660E+01
 -1       113-9.13561E+02-1.28445E+03-3.33304E+03-1.96464E-02-2.03958E-02-9.13928E+01
 -1       114-9.13667E+02-1.28451E+03-3.33313E+03-1.96464E-02-2.03958E-02-9.13588E+01
 -1       115-7.97172E+02-1.09594E+03-2.83132E+03-3.13595E-02 1.76212E-02-1.08040E+02
 -1       116-7.96852E+02-1.09563E+03-2.83064E+03-3.13595E-02 1.76212E-02-1.08152E+02
 -1       117-6.54855E+02-8.71011E+02-2.23324E+03 1.77989E-02 4.41133E-02-1.25098E+02
 -1       118-6.56107E+02-8.71427E+02-2.23337E+03 1.77987E-02 4.41133E-02-1.25262E+02
 -1       119-4.73290E+02-6.12119E+02-1.55943E+03 6.62645E-03 6.62375E-02-1.63490E+02
 -1       120-4.74374E+02-6.12749E+02-1.56044E+03 6.62625E-03 6.62372E-02-1.63994E+02
 -1       121-2.49739E+02-3.21038E+02-8.18182E+02 3.95431E-02-1.69152E-02-1.68090E+02
 -1       122-2.50368E+02-3.21502E+02-8.19095E+02 3.95430E-02-1.69152E-02-1.68075E+02
 -1       123-2.91614E+02-1.68643E+02-2.69487E+02 1.19634E-02-8.94486E-03-2.33323E+02
 -1       124-2.94287E+02-1.69803E+02-2.70677E+02 1.19634E-02-8.94476E-03-2.33452E+02
 -1       125 6.98324E+02 3.25178E+02 3.88562E+02-6.02779E-02-2.29501E-02-3.63987E+02
 -1       126 7.02201E+02 3.26767E+02 3.89994E+02-6.02787E-02-2.29505E-02-3.64067E+02
 -3
    1PSTEP                        19           5           3          
  100CL  105 2.50000E-01         126                     1    5           1
 -4  TOSTRAIN    6    1
 -5  EXX         1    4    1    1
 -5  EYY         1    4    2    2
 -5  EZZ         1    4    3    3
 -5  EXY         1    4    1    2
 -5  EYZ         1    4    2    3
 -5  EZX         1    4    3    1
 -1         1-4.13743E-05-1.50491E-14-2.06201E-02-5.66620E-10 1.31941E-13 1.03139E-02
 -1         2-4.17178E-05-1.29752E-15 8.38940E-04 1.72850E-10 3.68678E-13 7.98131E-03
 -1         3-5.89738E-04 6.37739E-16 1.02432E-03-1.29009E-07 4.90960E-08 2.64595E-03
 -1         4 4.88004E-03 8.07295E-14-1.80987E-02 2.53058E-07-9.42334E-08 3.25985E-03
 -1         5-4.13846E-05-1.50491E-14-2.06213E-02-5.66841E-10 1.31943E-13 1.03154E-02
 -1         6-4.17215E-05-1.29752E-15 8.39545E-04 1.72890E-10 3.68678E-13 7.98055E-03
 -1         7-5.87974E-04 6.37739E-16 1.02427E-03-1.29009E-07 4.90958E-08 2.64600E-03
 -1         8 4.88464E-03 8.07295E-14-1.80991E-02 2.53059E-07-9.42329E-08 3.26011E-03
 -1         9-5.83405E-04-1.87717E-14 1.21628E-03 7.34844E-08-9.74403E-09 2.75174E-03
 -1        10 2.20769E-03 2.50199E-13-1.25557E-02 3.72779E-07-6.58587E-08 1.87987E-03
 -1        11-5.80746E-04-1.87717E-14 1.21596E-03 7.34846E-08-9.74400E-09 2.75204E-03
 -1        12 2.21128E-03 2.50199E-13-1.25551E-02 3.72780E-07-6.58587E-08 1.87957E-03
 -1        13-5.41109E-04-1.43537E-14 1.23030E-03-6.60298E-08-4.80715E-09 2.20473E-03
 -1        14 1.41710E-03 1.01303E-13-7.25074E-03 2.65203E-07 1.54272E-08 1.76622E-03
 -1        15-5.38725E-04-1.43537E-14 1.23053E-03-6.60300E-08-4.80709E-09 2.20449E-03
 -1        16 1.42108E-03 1.01303E-13-7.25032E-03 2.65204E-07 1.54270E-08 1.76604E-03
 -1        17-5.15908E-04-5.12323E-15 1.23428E-03-9.83089E-08 2.82665E-08 1.86408E-03
 -1        18 4.89267E-04 1.03198E-13-3.02886E-03 2.73381E-07 8.80047E-09 1.44007E-03
 -1        19-5.12932E-04-5.12323E-15 1.23431E-03-9.83092E-08 2.82665E-08 1.86403E-03
 -1        20 4.93728E-04 1.03198E-13-3.02892E-03 2.73382E-07 8.80052E-09 1.44007E-03
 -1        21-5.08065E-04-1.78780E-14 1.22426E-03-6.99259E-08-5.44408E-10 1.55776E-03
 -1        22-2.66779E-04 1.39953E-13 5.39468E-04 3.05816E-07 7.48300E-09 1.21207E-03
 -1        23-5.04972E-04-1.78780E-14 1.22404E-03-6.99261E-08-5.44435E-10 1.55792E-03
 -1        24-2.62269E-04 1.39953E-13 5.39401E-04 3.05817E-07 7.48310E-09 1.21227E-03
 -1        25-4.99442E-04-2.18634E-14 1.18912E-03-1.91457E-08-7.98079E-09 1.18754E-03
 -1        26-8.90833E-04 1.67503E-13 3.39742E-03 3.21119E-07-2.35359E-09 9.25739E-04
 -1        27-4.96739E-04-2.18634E-14 1.18915E-03-1.91457E-08-7.98079E-09 1.18742E-03
 -1        28-8.86750E-04 1.67503E-13 3.39743E-03 3.21120E-07-2.35365E-09 9.25667E-04
 -1        29-4.60436E-04-9.32577E-15 1.10887E-03-8.77981E-08 6.16983E-09 7.64051E-04
 -1        30-1.29115E-03 1.03330E-13 5.36712E-03 2.70427E-07 6.61077E-09 6.04374E-04
 -1        31-4.57554E-04-9.32577E-15 1.10881E-03-8.77983E-08 6.16986E-09 7.63789E-04
 -1        32-1.28686E-03 1.03330E-13 5.36705E-03 2.70428E-07 6.61069E-09 6.04246E-04
 -1        33-4.10238E-04-6.51037E-15 1.00594E-03-1.02575E-07-1.80080E-08 4.21906E-04
 -1        34-1.48305E-03 1.06747E-13 6.45626E-03 2.77473E-07-1.75487E-08 3.43435E-04
 -1        35-4.07131E-04-6.51037E-15 1.00564E-03-1.02576E-07-1.80080E-08 4.21885E-04
 -1        36-1.47849E-03 1.06747E-13 6.45623E-03 2.77475E-07-1.75487E-08 3.43492E-04
 -1        37-3.68194E-04-1.41238E-14 9.13234E-04-5.19391E-08-4.36606E-08 2.86098E-04
 -1        38-1.55888E-03 1.27235E-13 7.00709E-03 2.88496E-07-3.27028E-09 2.38189E-04
 -1        39-3.65420E-04-1.41238E-14 9.13198E-04-5.19392E-08-4.36606E-08 2.86357E-04
 -1        40-1.55480E-03 1.27235E-13 7.00756E-03 2.88497E-07-3.27022E-09 2.38498E-04
 -1        41-3.32940E-04-1.68611E-14 8.36576E-04-6.78600E-09-2.32990E-08 3.37340E-04
 -1        42-1.63751E-03 1.51769E-13 7.51141E-03 2.99170E-07 5.62584E-08 2.76812E-04
 -1        43-3.30646E-04-1.68611E-14 8.36809E-04-6.78603E-09-2.32990E-08 3.37689E-04
 -1        44-1.63384E-03 1.51769E-13 7.51173E-03 2.99172E-07 5.62585E-08 2.77434E-04
 -1        45-3.00802E-04-2.43511E-14 7.81632E-04-2.52945E-08-4.60258E-09 3.43958E-04
 -1        46-1.76616E-03 1.83940E-13 8.18571E-03 3.36744E-07 4.60462E-08 2.72627E-04
 -1        47-2.98276E-04-2.43511E-14 7.81527E-04-2.52945E-08-4.60257E-09 3.43714E-04
 -1        48-1.76181E-03 1.83940E-13 8.18511E-03 3.36746E-07 4.60460E-08 2.72747E-04
 -1        49-2.88659E-04 1.70094E-14 7.77813E-04-1.55680E-07-3.99756E-08 1.76227E-04
 -1        50-1.89749E-03 6.36577E-14 8.80481E-03 2.37901E-07-4.89741E-08 1.29008E-04
 -1        51-2.85807E-04 1.70094E-14 7.77590E-04-1.55681E-07-3.99756E-08 1.75764E-04
 -1        52-1.89277E-03 6.36577E-14 8.80460E-03 2.37902E-07-4.89742E-08 1.28574E-04
 -1        53-3.15368E-04-8.66002E-15 8.35318E-04-3.65694E-08-4.00442E-08-9.63510E-05
 -1        54-1.96088E-03 6.68996E-14 9.00388E-03 2.09570E-07 5.48726E-09-8.38061E-05
 -1        55-3.13703E-04-8.66002E-15 8.35368E-04-3.65695E-08-4.00442E-08-9.63105E-05
 -1        56-1.95793E-03 6.68996E-14 9.00454E-03 2.09570E-07 5.48729E-09-8.35034E-05
 -1        57-3.35987E-04-5.10833E-15 9.22611E-04-7.69252E-08-3.02143E-08-3.53684E-04
 -1        58-1.86417E-03 9.03591E-14 8.60394E-03 2.46894E-07 5.70571E-08-2.76705E-04
 -1        59-3.34125E-04-5.10833E-15 9.22457E-04-7.69254E-08-3.02143E-08-3.53491E-04
 -1        60-1.86028E-03 9.03591E-14 8.60398E-03 2.46895E-07 5.70571E-08-2.75985E-04
 -1        61-3.46379E-04 6.26794E-16 1.00147E-03-9.72693E-08-6.45728E-08-4.96979E-04
 -1        62-1.65059E-03 9.27260E-14 7.72077E-03 2.74570E-07 8.70052E-09-3.79611E-04
 -1        63-3.44122E-04 6.26794E-16 1.00162E-03-9.72696E-08-6.45727E-08-4.97400E-04
 -1        64-1.64613E-03 9.27260E-14 7.72096E-03 2.74572E-07 8.70020E-09-3.79827E-04
 -1        65-3.51923E-04 3.54082E-14 1.02936E-03-1.68135E-07-2.70564E-09-5.85802E-04
 -1        66-1.39060E-03-2.65383E-14 6.56682E-03 2.83231E-08 8.56956E-08-4.33726E-04
 -1        67-3.52109E-04 3.54082E-14 1.02918E-03-1.68135E-07-2.70565E-09-5.85989E-04
 -1        68-1.38824E-03-2.65383E-14 6.56563E-03 2.83231E-08 8.56955E-08-4.33384E-04
 -1        69-3.04025E-04-7.21136E-16 1.01249E-03-1.01625E-07-9.38078E-08-6.82491E-04
 -1        70-1.03875E-03 8.04112E-14 5.24990E-03 2.10715E-07-1.92058E-07-5.07113E-04
 -1        71-3.02909E-04-7.21136E-16 1.01215E-03-1.01625E-07-9.38079E-08-6.82959E-04
 -1        72-1.03500E-03 8.04112E-14 5.25099E-03 2.10716E-07-1.92058E-07-5.07159E-04
 -1        73-2.74292E-04-3.25560E-14 9.63534E-04 8.29944E-08-5.86711E-08-7.27447E-04
 -1        74-7.59360E-04 1.65531E-13 3.55529E-03 2.09617E-07 2.65508E-07-3.78779E-04
 -1        75-2.73800E-04-3.25560E-14 9.64552E-04 8.29944E-08-5.86714E-08-7.27295E-04
 -1        76-7.57840E-04 1.65531E-13 3.55733E-03 2.09618E-07 2.65509E-07-3.76676E-04
 -1        77-1.70171E-04 1.00136E-13 6.42534E-04-3.73344E-07 7.58971E-08-4.91494E-04
 -1        78 8.98992E-05 3.03454E-14 2.11467E-03 2.62774E-07 1.45516E-07-5.79583E-04
 -1        79-1.68824E-04 1.00136E-13 6.43482E-04-3.73344E-07 7.58968E-08-4.89961E-04
 -1        80 9.75323E-05 3.03454E-14 2.11239E-03 2.62775E-07 1.45515E-07-5.80914E-04
 -1        81-3.10071E-05 6.95068E-14 3.58896E-04 4.18791E-07 9.93335E-08-7.20191E-05
 -1        82-1.22320E-03 4.02927E-14 1.67564E-03-3.71886E-07-1.15239E-07-3.98638E-04
 -1        83-3.20529E-05 6.95068E-14 3.59177E-04 4.18791E-07 9.93357E-08-6.73995E-05
 -1        84-1.23268E-03 4.02927E-14 1.67252E-03-3.71885E-07-1.15239E-07-4.03730E-04
 -1        85-4.20613E-05-1.92815E-16 2.28070E-02-1.86085E-10-2.40925E-13 1.11212E-02
 -1        86-6.05952E-03 1.84946E-15 2.03609E-02-3.98129E-08-4.19887E-08 3.42510E-03
 -1        87-4.20584E-05-1.92815E-16 2.28065E-02-1.86085E-10-2.40925E-13 1.11210E-02
 -1        88-6.06058E-03 1.84946E-15 2.03603E-02-3.98129E-08-4.19887E-08 3.42543E-03
 -1        89-3.37450E-03 2.09003E-14 1.49952E-02-7.08848E-08-1.02362E-07 1.86913E-03
 -1        90-3.37278E-03 2.09003E-14 1.49950E-02-7.08851E-08-1.02362E-07 1.86940E-03
 -1        91-2.49932E-03 3.95032E-14 9.78816E-03-1.31805E-07-7.53112E-08 1.75020E-03
 -1        92-2.49853E-03 3.95032E-14 9.78892E-03-1.31805E-07-7.53112E-08 1.75017E-03
 -1        93-1.52108E-03 9.24295E-14 5.53712E-03-2.22297E-07 2.40908E-08 1.42957E-03
 -1        94-1.51959E-03 9.24295E-14 5.53779E-03-2.22298E-07 2.40909E-08 1.42936E-03
 -1        95-7.49352E-04 8.24217E-14 1.91230E-03-2.09577E-07 3.45432E-08 1.20514E-03
 -1        96-7.47676E-04 8.24217E-14 1.91229E-03-2.09577E-07 3.45431E-08 1.20521E-03
 -1        97-1.08051E-04 2.79319E-14-1.03499E-03-1.29401E-07 2.14333E-08 9.13351E-04
 -1        98-1.06728E-04 2.79319E-14-1.03514E-03-1.29401E-07 2.14333E-08 9.13173E-04
 -1        99 3.70281E-04 8.22510E-14-3.15125E-03-2.10080E-07 1.08800E-08 5.82998E-04
 -1       100 3.71748E-04 8.22510E-14-3.15124E-03-2.10080E-07 1.08802E-08 5.82636E-04
 -1       101 6.62570E-04 1.09054E-13-4.42391E-03-2.40579E-07 2.58134E-08 3.20377E-04
 -1       102 6.64225E-04 1.09054E-13-4.42395E-03-2.40579E-07 2.58134E-08 3.20223E-04
 -1       103 8.22496E-04 5.23865E-14-5.15258E-03-1.73853E-07 6.62085E-09 2.18129E-04
 -1       104 8.23958E-04 5.23865E-14-5.15295E-03-1.73854E-07 6.62069E-09 2.18301E-04
 -1       105 9.71634E-04 1.25820E-14-5.80427E-03-8.32432E-08-3.32186E-08 2.60530E-04
 -1       106 9.72551E-04 1.25820E-14-5.80445E-03-8.32433E-08-3.32186E-08 2.60860E-04
 -1       107 1.16455E-03 8.28422E-15-6.56995E-03-8.42456E-08-2.11009E-08 2.63133E-04
 -1       108 1.16526E-03 8.28422E-15-6.56920E-03-8.42456E-08-2.11008E-08 2.62767E-04
 -1       109 1.32017E-03 1.12343E-13-7.19348E-03-2.37912E-07 9.44291E-08 1.33406E-04
 -1       110 1.32115E-03 1.12343E-13-7.19294E-03-2.37912E-07 9.44291E-08 1.32648E-04
 -1       111 1.33014E-03 7.63247E-15-7.30241E-03-6.80989E-08 7.08854E-08-6.85225E-05
 -1       112 1.33052E-03 7.63247E-15-7.30339E-03-6.80990E-08 7.08853E-08-6.86637E-05
 -1       113 1.19219E-03 1.20171E-14-6.73680E-03-6.36514E-08-6.72058E-08-2.60060E-04
 -1       114 1.19203E-03 1.20171E-14-6.73689E-03-6.36514E-08-6.72058E-08-2.59940E-04
 -1       115 9.57834E-04 1.62334E-14-5.69155E-03-1.01888E-07 5.78071E-08-3.69590E-04
 -1       116 9.57888E-04 1.62334E-14-5.69029E-03-1.01889E-07 5.78071E-08-3.69954E-04
 -1       117 6.86750E-04 2.01023E-14-4.45157E-03 5.91315E-08 1.43664E-07-4.53207E-04
 -1       118 6.84021E-04 2.01023E-14-4.45062E-03 5.91312E-08 1.43664E-07-4.53710E-04
 -1       119 4.30703E-04 4.58637E-14-3.07854E-03 2.45986E-08 2.15623E-07-5.81130E-04
 -1       120 4.29187E-04 4.58637E-14-3.07975E-03 2.45978E-08 2.15623E-07-5.82780E-04
 -1       121 2.10775E-04 2.96390E-14-1.60068E-03 1.27582E-07-5.71988E-08-5.78528E-04
 -1       122 2.10241E-04 2.96390E-14-1.60215E-03 1.27582E-07-5.71987E-08-5.78496E-04
 -1       123-4.30241E-04-3.29354E-14-3.00219E-04 3.82659E-08-2.97894E-08-7.57098E-04
 -1       124-4.35181E-04-3.29354E-14-3.00301E-04 3.82659E-08-2.97892E-08-7.57435E-04
 -1       125 1.16118E-03-8.54195E-15 2.49483E-04-1.97084E-07-7.09155E-08-1.19741E-03
 -1       126 1.16857E-03-8.54195E-15 2.48989E-04-1.97085E-07-7.09162E-08-1.19781E-03
 -3
    1PSTEP                        20           5           3          
  100CL  105 2.50000E-01         126                     1    5           1
 -4  ERROR       1    1
 -5  STR(%)      1    1    0    0
 -1         1 6.66502E+01
 -1         2 6.66502E+01
 -1         3 6.66502E+01
 -1         4 6.66502E+01
 -1         5 6.66502E+01
 -1         6 6.66502E+01
 -1         7 6.66502E+01
 -1         8 6.66502E+01
 -1         9 6.87409E+01
 -1        10 6.87409E+01
 -1        11 6.87409E+01
 -1        12 6.87409E+01
 -1        13 6.87409E+01
 -1        14 6.87409E+01
 -1        15 6.87409E+01
 -1        16 6.87409E+01
 -1        17 6.68801E+01
 -1        18 6.68801E+01
 -1        19 6.68801E+01
 -1        20 6.68801E+01
 -1        21 6.19326E+01
 -1        22 6.19326E+01
 -1        23 6.19326E+01
 -1        24 6.19326E+01
 -1        25 7.22021E+01
 -1        26 4.03163E+01
 -1        27 7.22021E+01
 -1        28 4.03163E+01
 -1        29 8.20526E+01
 -1        30 4.80383E+01
 -1        31 8.20526E+01
 -1        32 4.80383E+01
 -1        33 8.20526E+01
 -1        34 4.99829E+01
 -1        35 8.20526E+01
 -1        36 4.99829E+01
 -1        37 7.44982E+01
 -1        38 5.14360E+01
 -1        39 7.44982E+01
 -1        40 5.14360E+01
 -1        41 7.20980E+01
 -1        42 5.30563E+01
 -1        43 7.20980E+01
 -1        44 5.30563E+01
 -1        45 7.06184E+01
 -1        46 5.36062E+01
 -1        47 7.06184E+01
 -1        48 5.36062E+01
 -1        49 6.83377E+01
 -1        50 5.36062E+01
 -1        51 6.83377E+01
 -1        52 5.36062E+01
 -1        53 6.87640E+01
 -1        54 5.27532E+01
 -1        55 6.87640E+01
 -1        56 5.27532E+01
 -1        57 7.28927E+01
 -1        58 5.26930E+01
 -1        59 7.28927E+01
 -1        60 5.26930E+01
 -1        61 7.75764E+01
 -1        62 5.16799E+01
 -1        63 7.75764E+01
 -1        64 5.16799E+01
 -1        65 8.30858E+01
 -1        66 4.96334E+01
 -1        67 8.30858E+01
 -1        68 4.96334E+01
 -1        69 8.32104E+01
 -1        70 4.69778E+01
 -1        71 8.32104E+01
 -1        72 4.69778E+01
 -1        73 9.54262E+01
 -1        74 4.29705E+01
 -1        75 9.54262E+01
 -1        76 4.29705E+01
 -1        77 9.54262E+01
 -1        78 6.38731E+01
 -1        79 9.54262E+01
 -1        80 6.38731E+01
 -1        81 6.38731E+01
 -1        82 6.38731E+01
 -1        83 6.38731E+01
 -1        84 6.38731E+01
 -1        85 6.19882E+01
 -1        86 6.19882E+01
 -1        87 6.19882E+01
 -1        88 6.19882E+01
 -1        89 5.61730E+01
 -1        90 5.61730E+01
 -1        91 5.35119E+01
 -1        92 5.35119E+01
 -1        93 4.59278E+01
 -1        94 4.59278E+01
 -1        95 3.92797E+01
 -1        96 3.92797E+01
 -1        97 7.22021E+01
 -1        98 7.22021E+01
 -1        99 8.20526E+01
 -1       100 8.20526E+01
 -1       101 8.20526E+01
 -1       102 8.20526E+01
 -1       103 7.44982E+01
 -1       104 7.44982E+01
 -1       105 7.20980E+01
 -1       106 7.20980E+01
 -1       107 7.06184E+01
 -1       108 7.06184E+01
 -1       109 6.83377E+01
 -1       110 6.83377E+01
 -1       111 6.87640E+01
 -1       112 6.87640E+01
 -1       113 7.28927E+01
 -1       114 7.28927E+01
 -1       115 7.75764E+01
 -1       116 7.75764E+01
 -1       117 8.30858E+01
 -1       118 8.30858E+01
 -1       119 8.32104E+01
 -1       120 8.32104E+01
 -1       121 9.54262E+01
 -1       122 9.54262E+01
 -1       123 9.54262E+01
 -1       124 9.54262E+01
 -1       125 4.40185E+01
 -1       126 4.40185E+01
 -3
    1PSTEP                        21           6           3          
  100CL  106 2.60000E-01         126                     1    6           1
 -4  DISP        4    1
 -5  D1          1    2    1    0
 -5  D2          1    2    2    0
 -5  D3          1    2    3    0
 -5  ALL         1    2    0    0    1ALL
 -1         1 0.00000E+00 0.00000E+00 0.00000E+00
 -1         2 0.00000E+00 0.00000E+00 0.00000E+00
 -1         3 8.25493E-04 0.00000E+00 1.29009E-05
 -1         4 1.07594E-03 0.00000E+00-1.12634E-03
 -1         5 0.00000E+00 0.00000E+00 0.00000E+00
 -1         6 0.00000E+00 0.00000E+00 0.00000E+00
 -1         7 8.25606E-04 0.00000E+00 1.28994E-05
 -1         8 1.07586E-03 0.00000E+00-1.12631E-03
 -1         9 2.80947E-03 0.00000E+00 1.13356E-05
 -1        10 2.89174E-03 0.00000E+00-2.01595E-03
 -1        11 2.80948E-03 0.00000E+00 1.13512E-05
 -1        12 2.89167E-03 0.00000E+00-2.01594E-03
 -1        13 5.43523E-03 0.00000E+00-1.88751E-05
 -1        14 5.44801E-03 0.00000E+00-2.62117E-03
 -1        15 5.43526E-03 0.00000E+00-1.88624E-05
 -1        16 5.44792E-03 0.00000E+00-2.62118E-03
 -1        17 8.46429E-03 0.00000E+00-7.05620E-05
 -1        18 8.40885E-03 0.00000E+00-3.00334E-03
 -1        19 8.46435E-03 0.00000E+00-7.05473E-05
 -1        20 8.40880E-03 0.00000E+00-3.00333E-03
 -1        21 1.16763E-02 0.00000E+00-1.32518E-04
 -1        22 1.15753E-02 0.00000E+00-3.19803E-03
 -1        23 1.16763E-02 0.00000E+00-1.32498E-04
 -1        24 1.15753E-02 0.00000E+00-3.19801E-03
 -1        25 1.49046E-02 0.00000E+00-1.94147E-04
 -1        26 1.47732E-02 0.00000E+00-3.23294E-03
 -1        27 1.49046E-02 0.00000E+00-1.94145E-04
 -1        28 1.47731E-02 0.00000E+00-3.23291E-03
 -1        29 1.80060E-02 0.00000E+00-2.44310E-04
 -1        30 1.78583E-02 0.00000E+00-3.13168E-03
 -1        31 1.80061E-02 0.00000E+00-2.44327E-04
 -1        32 1.78582E-02 0.00000E+00-3.13167E-03
 -1        33 2.08723E-02 0.00000E+00-2.76593E-04
 -1        34 2.07204E-02 0.00000E+00-2.92266E-03
 -1        35 2.08723E-02 0.00000E+00-2.76609E-04
 -1        36 2.07203E-02 0.00000E+00-2.92266E-03
 -1        37 2.34431E-02 0.00000E+00-2.89835E-04
 -1        38 2.32934E-02 0.00000E+00-2.63051E-03
 -1        39 2.34431E-02 0.00000E+00-2.89857E-04
 -1        40 2.32934E-02 0.00000E+00-2.63054E-03
 -1        41 2.56672E-02 0.00000E+00-2.83762E-04
 -1        42 2.55226E-02 0.00000E+00-2.26908E-03
 -1        43 2.56673E-02 0.00000E+00-2.83795E-04
 -1        44 2.55226E-02 0.00000E+00-2.26914E-03
 -1        45 2.74975E-02 0.00000E+00-2.58895E-04
 -1        46 2.73592E-02 0.00000E+00-1.85132E-03
 -1        47 2.74975E-02 0.00000E+00-2.58928E-04
 -1        48 2.73591E-02 0.00000E+00-1.85137E-03
 -1        49 2.89082E-02 0.00000E+00-2.17650E-04
 -1        50 2.87766E-02 0.00000E+00-1.39183E-03
 -1        51 2.89083E-02 0.00000E+00-2.17657E-04
 -1        52 2.87765E-02 0.00000E+00-1.39183E-03
 -1        53 2.98724E-02 0.00000E+00-1.64220E-04
 -1        54 2.97500E-02 0.00000E+00-9.09921E-04
 -1        55 2.98725E-02 0.00000E+00-1.64200E-04
 -1        56 2.97499E-02 0.00000E+00-9.09891E-04
 -1        57 3.03834E-02 0.00000E+00-1.03801E-04
 -1        58 3.02720E-02 0.00000E+00-4.33652E-04
 -1        59 3.03834E-02 0.00000E+00-1.03774E-04
 -1        60 3.02720E-02 0.00000E+00-4.33621E-04
 -1        61 3.04719E-02 0.00000E+00-4.07774E-05
 -1        62 3.03721E-02 0.00000E+00 1.01673E-05
 -1        63 3.04720E-02 0.00000E+00-4.07333E-05
 -1        64 3.03721E-02 0.00000E+00 1.02382E-05
 -1        65 3.01824E-02 0.00000E+00 2.11012E-05
 -1        66 3.00956E-02 0.00000E+00 4.01889E-04
 -1        67 3.01825E-02 0.00000E+00 2.11057E-05
 -1        68 3.00956E-02 0.00000E+00 4.01845E-04
 -1        69 2.95769E-02 0.00000E+00 8.03195E-05
 -1        70 2.95067E-02 0.00000E+00 7.23755E-04
 -1        71 2.95770E-02 0.00000E+00 8.03708E-05
 -1        72 2.95066E-02 0.00000E+00 7.23863E-04
 -1        73 2.87374E-02 0.00000E+00 1.29090E-04
 -1        74 2.86846E-02 0.00000E+00 9.51887E-04
 -1        75 2.87374E-02 0.00000E+00 1.29126E-04
 -1        76 2.86846E-02 0.00000E+00 9.51816E-04
 -1        77 2.77717E-02 0.00000E+00 1.63752E-04
 -1        78 2.77583E-02 0.00000E+00 1.07506E-03
 -1        79 2.77719E-02 0.00000E+00 1.63706E-04
 -1        80 2.77581E-02 0.00000E+00 1.07498E-03
 -1        81 2.68045E-02 0.00000E+00 1.72692E-04
 -1        82 2.67344E-02 0.00000E+00 1.15247E-03
 -1        83 2.68042E-02 0.00000E+00 1.72606E-04
 -1        84 2.67348E-02 0.00000E+00 1.15261E-03
 -1        85 0.00000E+00 0.00000E+00 0.00000E+00
 -1        86 1.14591E-03 0.00000E+00 1.14424E-03
 -1        87 0.00000E+00 0.00000E+00 0.00000E+00
 -1        88 1.14589E-03 0.00000E+00 1.14425E-03
 -1        89 3.02243E-03 0.00000E+00 2.02266E-03
 -1        90 3.02242E-03 0.00000E+00 2.02267E-03
 -1        91 5.62903E-03 0.00000E+00 2.56876E-03
 -1        92 5.62900E-03 0.00000E+00 2.56877E-03
 -1        93 8.62692E-03 0.00000E+00 2.85400E-03
 -1        94 8.62695E-03 0.00000E+00 2.85400E-03
 -1        95 1.18093E-02 0.00000E+00 2.93100E-03
 -1        96 1.18093E-02 0.00000E+00 2.93100E-03
 -1        97 1.50065E-02 0.00000E+00 2.84833E-03
 -1        98 1.50065E-02 0.00000E+00 2.84831E-03
 -1        99 1.80779E-02 0.00000E+00 2.64965E-03
 -1       100 1.80779E-02 0.00000E+00 2.64962E-03
 -1       101 2.09159E-02 0.00000E+00 2.37684E-03
 -1       102 2.09159E-02 0.00000E+00 2.37680E-03
 -1       103 2.34604E-02 0.00000E+00 2.05849E-03
 -1       104 2.34604E-02 0.00000E+00 2.05847E-03
 -1       105 2.56607E-02 0.00000E+00 1.70901E-03
 -1       106 2.56608E-02 0.00000E+00 1.70900E-03
 -1       107 2.74710E-02 0.00000E+00 1.34007E-03
 -1       108 2.74709E-02 0.00000E+00 1.34008E-03
 -1       109 2.88667E-02 0.00000E+00 9.60740E-04
 -1       110 2.88667E-02 0.00000E+00 9.60721E-04
 -1       111 2.98224E-02 0.00000E+00 5.82810E-04
 -1       112 2.98224E-02 0.00000E+00 5.82776E-04
 -1       113 3.03332E-02 0.00000E+00 2.25794E-04
 -1       114 3.03331E-02 0.00000E+00 2.25843E-04
 -1       115 3.04296E-02 0.00000E+00-9.38379E-05
 -1       116 3.04296E-02 0.00000E+00-9.38180E-05
 -1       117 3.01518E-02 0.00000E+00-3.62552E-04
 -1       118 3.01517E-02 0.00000E+00-3.62535E-04
 -1       119 2.95653E-02 0.00000E+00-5.65567E-04
 -1       120 2.95652E-02 0.00000E+00-5.65603E-04
 -1       121 2.87373E-02 0.00000E+00-6.89922E-04
 -1       122 2.87372E-02 0.00000E+00-6.89917E-04
 -1       123 2.78024E-02 0.00000E+00-7.44739E-04
 -1       124 2.78023E-02 0.00000E+00-7.44732E-04
 -1       125 2.67620E-02 0.00000E+00-7.41599E-04
 -1       126 2.67621E-02 0.00000E+00-7.41560E-04
 -3
    1PSTEP                        22           6           3          
  100CL  106 2.60000E-01         126                     1    6           1
 -4  STRESS      6    1
 -5  SXX         1    4    1    1
 -5  SYY         1    4    2    2
 -5  SZZ         1    4    3    3
 -5  SXY         1    4    1    2
 -5  SYZ         1    4    2    3
 -5  SZX         1    4    3    1
 -1         1-5.08195E+03-5.20332E+03-1.17055E+04 1.42022E-04-1.67669E-04 3.07497E+03
 -1         2 1.54858E+02 9.09736E+01 1.05707E+02 1.30446E-05 2.20004E-04 2.54003E+03
 -1         3-5.64376E+00 2.70331E+01 8.09427E+01 5.80767E-02-3.55206E-04 8.29716E+02
 -1         4-1.64576E+03-3.33320E+03-9.17581E+03-4.15128E-02 1.32631E-02 8.20808E+02
 -1         5-5.08184E+03-5.20320E+03-1.17052E+04 1.41952E-04-1.67659E-04 3.07473E+03
 -1         6 1.54890E+02 9.09753E+01 1.05714E+02 1.30602E-05 2.20001E-04 2.54038E+03
 -1         7-5.98257E+00 2.69259E+01 8.08755E+01 5.80766E-02-3.55196E-04 8.29767E+02
 -1         8-1.64787E+03-3.33409E+03-9.17664E+03-4.15124E-02 1.32631E-02 8.20792E+02
 -1         9 6.68014E+00 6.24107E+01 1.81409E+02 4.13402E-03 7.97282E-03 8.82851E+02
 -1        10-1.84792E+03-2.65928E+03-6.85333E+03-3.64006E-02 8.19466E-03 3.72127E+02
 -1        11 6.37261E+00 6.22995E+01 1.81342E+02 4.13400E-03 7.97282E-03 8.82719E+02
 -1        12-1.84886E+03-2.65973E+03-6.85386E+03-3.64005E-02 8.19466E-03 3.72126E+02
 -1        13 2.01530E+01 7.48277E+01 2.25239E+02 1.35190E-02 6.58716E-03 7.21979E+02
 -1        14-1.00332E+03-1.55397E+03-4.11683E+03-4.55818E-02-1.61119E-03 3.91289E+02
 -1        15 1.98480E+01 7.46999E+01 2.25112E+02 1.35190E-02 6.58716E-03 7.22038E+02
 -1        16-1.00458E+03-1.55452E+03-4.11740E+03-4.55815E-02-1.61119E-03 3.91280E+02
 -1        17 1.33045E+01 8.07198E+01 2.56803E+02 3.11295E-02 7.67947E-03 5.99208E+02
 -1        18-5.17535E+02-7.55436E+02-1.98429E+03-2.84354E-02 4.25315E-03 3.56585E+02
 -1        19 1.29073E+01 8.05605E+01 2.56666E+02 3.11295E-02 7.67948E-03 5.99260E+02
 -1        20-5.18721E+02-7.55915E+02-1.98470E+03-2.84353E-02 4.25314E-03 3.56643E+02
 -1        21 7.83974E+00 8.75096E+01 2.86454E+02 2.54748E-02 1.05173E-02 4.89093E+02
 -1        22-9.09833E+01-9.40428E+01-2.18830E+02-2.65294E-02 1.03351E-02 3.55237E+02
 -1        23 7.56547E+00 8.73735E+01 2.86273E+02 2.54748E-02 1.05173E-02 4.89051E+02
 -1        24-9.20453E+01-9.44775E+01-2.19217E+02-2.65293E-02 1.03351E-02 3.55220E+02
 -1        25-5.98884E+00 9.33908E+01 3.19230E+02 6.14186E-03 7.09066E-04 3.93529E+02
 -1        26 2.29065E+02 4.28323E+02 1.20706E+03-4.01747E-02 1.23659E-02 3.47966E+02
 -1        27-6.23998E+00 9.32309E+01 3.18949E+02 6.14186E-03 7.09067E-04 3.93569E+02
 -1        28 2.28060E+02 4.27874E+02 1.20656E+03-4.01745E-02 1.23659E-02 3.48031E+02
 -1        29-2.38430E+01 1.00737E+02 3.59998E+02 1.98465E-02-8.57487E-03 2.98773E+02
 -1        30 4.65099E+02 8.26751E+02 2.31165E+03-3.30365E-02 4.55665E-03 3.21820E+02
 -1        31-2.41827E+01 1.00564E+02 3.59764E+02 1.98464E-02-8.57485E-03 2.98840E+02
 -1        32 4.63933E+02 8.26216E+02 2.31104E+03-3.30363E-02 4.55663E-03 3.21903E+02
 -1        33-3.26409E+01 1.10176E+02 3.98290E+02 7.32451E-03-8.32098E-03 2.23537E+02
 -1        34 6.42456E+02 1.11885E+03 3.12189E+03-4.36699E-02 4.02998E-05 2.89000E+02
 -1        35-3.29321E+01 1.10040E+02 3.98133E+02 7.32449E-03-8.32097E-03 2.23619E+02
 -1        36 6.41297E+02 1.11829E+03 3.12119E+03-4.36697E-02 4.02736E-05 2.89102E+02
 -1        37-3.64555E+01 1.18607E+02 4.28572E+02 2.76242E-02-1.12430E-02 1.74075E+02
 -1        38 7.74928E+02 1.33621E+03 3.72723E+03-2.00993E-02-1.79691E-02 2.58307E+02
 -1        39-3.67025E+01 1.18479E+02 4.28398E+02 2.76241E-02-1.12430E-02 1.74169E+02
 -1        40 7.73827E+02 1.33566E+03 3.72650E+03-2.00992E-02-1.79690E-02 2.58412E+02
 -1        41-3.94968E+01 1.26621E+02 4.57094E+02 4.67102E-02-1.65576E-02 1.27366E+02
 -1        42 8.73110E+02 1.50330E+03 4.19807E+03 4.73563E-04-3.02352E-02 2.15084E+02
 -1        43-3.96840E+01 1.26526E+02 4.56971E+02 4.67102E-02-1.65577E-02 1.27227E+02
 -1        44 8.72111E+02 1.50285E+03 4.19758E+03 4.73587E-04-3.02352E-02 2.14930E+02
 -1        45-4.04649E+01 1.35201E+02 4.85505E+02 5.50505E-03-1.69819E-02 8.46922E+01
 -1        46 9.43210E+02 1.62568E+03 4.54551E+03-4.70757E-02-2.62700E-02 1.65818E+02
 -1        47-4.05805E+01 1.35184E+02 4.85569E+02 5.50506E-03-1.69819E-02 8.45448E+01
 -1        48 9.42243E+02 1.62535E+03 4.54538E+03-4.70754E-02-2.62699E-02 1.65626E+02
 -1        49-4.16018E+01 1.41530E+02 5.07416E+02 2.58266E-02-3.82116E-03 4.07111E+01
 -1        50 9.79197E+02 1.69530E+03 4.74777E+03-4.88121E-02 2.14394E-03 1.10840E+02
 -1        51-4.19201E+01 1.41460E+02 5.07507E+02 2.58265E-02-3.82116E-03 4.07955E+01
 -1        52 9.77834E+02 1.69483E+03 4.74755E+03-4.88117E-02 2.14391E-03 1.10954E+02
 -1        53-3.32111E+01 1.48602E+02 5.22903E+02 2.01245E-02 1.02418E-02-2.32123E+01
 -1        54 9.85751E+02 1.69871E+03 4.75284E+03-2.61491E-02 1.58632E-02 3.44165E+01
 -1        55-3.32254E+01 1.48638E+02 5.23042E+02 2.01245E-02 1.02418E-02-2.31515E+01
 -1        56 9.84854E+02 1.69836E+03 4.75257E+03-2.61490E-02 1.58632E-02 3.44979E+01
 -1        57-2.15042E+01 1.54704E+02 5.32221E+02 1.27627E-02 1.38942E-02-9.07220E+01
 -1        58 9.46024E+02 1.61995E+03 4.52302E+03-3.43791E-02 1.61961E-02-4.70983E+01
 -1        59-2.13264E+01 1.54809E+02 5.32401E+02 1.27627E-02 1.38942E-02-9.06799E+01
 -1        60 9.45136E+02 1.61962E+03 4.52282E+03-3.43790E-02 1.61961E-02-4.70939E+01
 -1        61-1.34816E+01 1.57602E+02 5.35282E+02 4.37401E-02 2.26286E-02-1.49844E+02
 -1        62 8.59142E+02 1.46870E+03 4.09389E+03-2.93641E-02 3.70267E-02-1.18386E+02
 -1        63-1.38682E+01 1.57403E+02 5.35015E+02 4.37401E-02 2.26286E-02-1.49735E+02
 -1        64 8.57449E+02 1.46788E+03 4.09283E+03-2.93639E-02 3.70266E-02-1.18197E+02
 -1        65 9.79514E+00 1.66704E+02 5.44092E+02 2.28218E-02 2.33717E-03-2.03499E+02
 -1        66 7.41905E+02 1.26169E+03 3.50662E+03-1.39822E-03-2.25634E-02-1.72784E+02
 -1        67 1.04922E+01 1.67009E+02 5.44417E+02 2.28219E-02 2.33715E-03-2.03613E+02
 -1        68 7.41489E+02 1.26156E+03 3.50661E+03-1.39824E-03-2.25634E-02-1.72969E+02
 -1        69 1.18124E+01 1.57791E+02 5.13888E+02 3.68871E-02 2.62330E-02-2.43368E+02
 -1        70 5.87385E+02 9.87128E+02 2.73019E+03-3.95358E-02 5.61226E-02-2.06966E+02
 -1        71 1.21299E+01 1.57967E+02 5.14166E+02 3.68872E-02 2.62331E-02-2.43210E+02
 -1        72 5.85724E+02 9.86384E+02 2.72936E+03-3.95355E-02 5.61225E-02-2.06780E+02
 -1        73 2.86899E+01 1.39757E+02 4.37781E+02 1.52036E-03 1.82778E-02-2.55484E+02
 -1        74 3.55824E+02 6.33267E+02 1.76718E+03 1.99657E-03-3.69669E-02-1.71153E+02
 -1        75 2.89106E+01 1.39722E+02 4.37442E+02 1.52040E-03 1.82777E-02-2.55348E+02
 -1        76 3.55423E+02 6.32853E+02 1.76619E+03 1.99647E-03-3.69667E-02-1.71595E+02
 -1        77 1.63011E+00 8.00267E+01 2.65223E+02 1.19881E-01-2.36070E-02-1.76724E+02
 -1        78 4.59255E+02 4.82837E+02 1.15537E+03-7.79525E-02-3.67538E-02-2.03821E+02
 -1        79 1.25601E+00 7.97033E+01 2.64523E+02 1.19881E-01-2.36072E-02-1.77291E+02
 -1        80 4.55573E+02 4.81551E+02 1.15476E+03-7.79524E-02-3.67541E-02-2.03380E+02
 -1        81 3.57401E+01 6.21118E+01 1.72327E+02-1.48245E-01-4.37523E-02-6.36781E+01
 -1        82-2.38273E+02 1.27214E+02 6.64740E+02 1.83593E-01 7.63202E-02-1.44576E+02
 -1        83 3.71609E+01 6.26246E+01 1.72603E+02-1.48246E-01-4.37518E-02-6.51086E+01
 -1        84-2.30399E+02 1.31187E+02 6.70106E+02 1.83597E-01 7.63225E-02-1.42264E+02
 -1        85 5.42407E+03 5.28087E+03 1.27844E+04-2.01038E-05-3.67026E-05 3.78789E+03
 -1        86 1.55684E+03 3.36238E+03 9.97454E+03-9.77570E-03 1.93010E-03 1.31248E+03
 -1        87 5.42408E+03 5.28089E+03 1.27844E+04-2.00927E-05-3.67031E-05 3.78784E+03
 -1        88 1.55828E+03 3.36301E+03 9.97524E+03-9.77576E-03 1.93010E-03 1.31244E+03
 -1        89 1.73831E+03 2.72192E+03 7.52965E+03-5.72640E-03 9.27223E-03 8.49187E+02
 -1        90 1.73853E+03 2.72203E+03 7.52980E+03-5.72640E-03 9.27224E-03 8.49160E+02
 -1        91 9.93483E+02 1.69401E+03 4.73683E+03-1.52661E-02 7.21670E-03 7.72569E+02
 -1        92 9.94059E+02 1.69424E+03 4.73701E+03-1.52661E-02 7.21670E-03 7.72610E+02
 -1        93 5.10934E+02 9.19873E+02 2.58463E+03 1.15821E-02 1.50287E-03 5.77543E+02
 -1        94 5.11312E+02 9.20014E+02 2.58473E+03 1.15822E-02 1.50287E-03 5.77604E+02
 -1        95 8.51696E+01 2.75733E+02 8.40820E+02-5.26198E-03 6.19875E-05 4.14405E+02
 -1        96 8.57418E+01 2.75953E+02 8.40979E+02-5.26199E-03 6.19883E-05 4.14344E+02
 -1        97-2.59481E+02-2.38066E+02-5.31078E+02-2.52252E-02-7.33568E-03 2.74372E+02
 -1        98-2.58899E+02-2.37859E+02-5.30973E+02-2.52253E-02-7.33568E-03 2.74407E+02
 -1        99-5.32041E+02-6.28667E+02-1.55539E+03-4.63690E-03-1.57336E-02 1.56366E+02
 -1       100-5.31574E+02-6.28497E+02-1.55529E+03-4.63692E-03-1.57336E-02 1.56424E+02
 -1       101-7.25406E+02-9.04687E+02-2.27446E+03-1.69237E-02-1.82190E-02 7.41484E+01
 -1       102-7.24866E+02-9.04439E+02-2.27418E+03-1.69238E-02-1.82190E-02 7.42218E+01
 -1       103-8.63526E+02-1.10560E+03-2.79812E+03 2.27251E-03-8.70326E-03 2.77046E+01
 -1       104-8.62914E+02-1.10530E+03-2.79775E+03 2.27252E-03-8.70327E-03 2.77824E+01
 -1       105-9.67859E+02-1.25821E+03-3.19514E+03 1.60754E-02-5.23633E-03-6.47498E+00
 -1       106-9.67163E+02-1.25787E+03-3.19473E+03 1.60754E-02-5.23636E-03-6.64486E+00
 -1       107-1.04260E+03-1.36733E+03-3.47851E+03-3.08268E-02 3.25292E-03-2.67783E+01
 -1       108-1.04186E+03-1.36702E+03-3.47822E+03-3.08269E-02 3.25296E-03-2.69690E+01
 -1       109-1.08330E+03-1.42783E+03-3.63586E+03-5.82779E-03-9.62254E-03-3.82442E+01
 -1       110-1.08272E+03-1.42763E+03-3.63579E+03-5.82781E-03-9.62254E-03-3.81751E+01
 -1       111-1.06950E+03-1.41457E+03-3.60595E+03-1.72404E-02-1.71668E-02-6.08698E+01
 -1       112-1.06856E+03-1.41407E+03-3.60526E+03-1.72405E-02-1.71668E-02-6.08281E+01
 -1       113-1.00316E+03-1.32096E+03-3.36566E+03-4.56789E-02 2.50312E-02-8.66794E+01
 -1       114-1.00180E+03-1.32031E+03-3.36485E+03-4.56792E-02 2.50313E-02-8.66871E+01
 -1       115-8.98413E+02-1.16216E+03-2.94912E+03 3.28001E-03 1.00222E-02-1.13331E+02
 -1       116-8.97626E+02-1.16187E+03-2.94892E+03 3.28006E-03 1.00222E-02-1.13319E+02
 -1       117-7.30382E+02-9.32129E+02-2.35998E+03-6.61992E-02 8.48875E-03-1.41594E+02
 -1       118-7.28629E+02-9.31448E+02-2.35947E+03-6.61997E-02 8.48883E-03-1.41819E+02
 -1       119-5.55927E+02-6.59582E+02-1.63424E+03-6.16725E-02-1.80710E-02-1.80740E+02
 -1       120-5.53875E+02-6.58710E+02-1.63339E+03-6.16732E-02-1.80711E-02-1.80398E+02
 -1       121-2.97572E+02-3.46291E+02-8.54443E+02-4.24447E-02 2.88184E-03-1.86775E+02
 -1       122-2.96545E+02-3.45794E+02-8.53813E+02-4.24449E-02 2.88182E-03-1.86694E+02
 -1       123-3.06876E+02-1.78163E+02-2.85706E+02-6.58872E-02 3.55435E-03-2.43519E+02
 -1       124-3.02923E+02-1.76426E+02-2.83876E+02-6.58880E-02 3.55447E-03-2.43415E+02
 -1       125 6.28049E+02 2.98654E+02 3.70404E+02 4.12751E-02 1.95381E-02-3.87186E+02
 -1       126 6.24152E+02 2.97065E+02 3.68995E+02 4.12749E-02 1.95377E-02-3.86938E+02
 -3
    1PSTEP                        23           6           3          
  100CL  106 2.60000E-01         126                     1    6           1
 -4  TOSTRAIN    6    1
 -5  EXX         1    4    1    1
 -5  EYY         1    4    2    2
 -5  EZZ         1    4    3    3
 -5  EXY         1    4    1    2
 -5  EYZ         1    4    2    3
 -5  EZX         1    4    3    1
 -1         1-4.54405E-05-7.80620E-16-2.20864E-02 2.85082E-10-2.93336E-13 1.07592E-02
 -1         2-4.57110E-05-7.56534E-15 3.48600E-04 1.21846E-11-2.52562E-13 8.25474E-03
 -1         3-4.61583E-04 3.73735E-14 5.38894E-04 1.88830E-07 2.93965E-09 2.68318E-03
 -1         4 5.24462E-03 5.27524E-15-1.95439E-02-1.35897E-07 4.12191E-08 3.36821E-03
 -1         5-4.54350E-05-7.80620E-16-2.20859E-02 2.84991E-10-2.93336E-13 1.07584E-02
 -1         6-4.57070E-05-7.56534E-15 3.48611E-04 1.22039E-11-2.52561E-13 8.25588E-03
 -1         7-4.62217E-04 3.73735E-14 5.39029E-04 1.88830E-07 2.93964E-09 2.68333E-03
 -1         8 5.24071E-03 5.27524E-15-1.95438E-02-1.35897E-07 4.12192E-08 3.36808E-03
 -1         9-5.05054E-04-5.62323E-15 7.46456E-04 1.22896E-08 2.66496E-08 2.83180E-03
 -1        10 2.44931E-03 2.45125E-14-1.38683E-02-1.19576E-07 2.23011E-08 1.92632E-03
 -1        11-5.05652E-04-5.62323E-15 7.46566E-04 1.22896E-08 2.66496E-08 2.83134E-03
 -1        12 2.44773E-03 2.45125E-14-1.38686E-02-1.19575E-07 2.23011E-08 1.92626E-03
 -1        13-4.67160E-04-3.52838E-15 7.80864E-04 4.27069E-08 2.36151E-08 2.29442E-03
 -1        14 1.60236E-03 3.05469E-14-8.29978E-03-1.47723E-07-1.29945E-08 1.82649E-03
 -1        15-4.67742E-04-3.52838E-15 7.80885E-04 4.27069E-08 2.36151E-08 2.29458E-03
 -1        16 1.60007E-03 3.05469E-14-8.29985E-03-1.47722E-07-1.29945E-08 1.82636E-03
 -1        17-4.64568E-04 1.40922E-14 8.11158E-04 9.94747E-08 3.07853E-08 1.88369E-03
 -1        18 6.09773E-04 4.34300E-15-3.87307E-03-9.31136E-08 8.42205E-09 1.44388E-03
 -1        19-4.65351E-04 1.40922E-14 8.11248E-04 9.94747E-08 3.07853E-08 1.88381E-03
 -1        20 6.07460E-04 4.34300E-15-3.87282E-03-9.31134E-08 8.42202E-09 1.44392E-03
 -1        21-4.59668E-04 8.53106E-15 8.38407E-04 8.04499E-08 3.91513E-08 1.51875E-03
 -1        22-1.38268E-04 7.32555E-15-2.67189E-04-8.81941E-08 2.82518E-08 1.17250E-03
 -1        23-4.60095E-04 8.53106E-15 8.38242E-04 8.04499E-08 3.91513E-08 1.51860E-03
 -1        24-1.40292E-04 7.32555E-15-2.67047E-04-8.81939E-08 2.82518E-08 1.17231E-03
 -1        25-4.82232E-04-6.32989E-15 8.86357E-04 1.97767E-08 3.53329E-09 1.20249E-03
 -1        26-7.78310E-04 2.89076E-14 2.63865E-03-1.32831E-07 3.20758E-08 9.24282E-04
 -1        27-4.82547E-04-6.32989E-15 8.85979E-04 1.97767E-08 3.53329E-09 1.20263E-03
 -1        28-7.80141E-04 2.89076E-14 2.63852E-03-1.32831E-07 3.20758E-08 9.24393E-04
 -1        29-5.23372E-04 2.76282E-15 9.57952E-04 6.60509E-08-2.40373E-08 8.90296E-04
 -1        30-1.28403E-03 1.26758E-14 4.87760E-03-1.08058E-07 8.54390E-09 6.84955E-04
 -1        31-5.23947E-04 2.76282E-15 9.57780E-04 6.60509E-08-2.40373E-08 8.90495E-04
 -1        32-1.28612E-03 1.26758E-14 4.87736E-03-1.08058E-07 8.54390E-09 6.85124E-04
 -1        33-5.50962E-04-4.29957E-15 1.02473E-03 2.52248E-08-2.56552E-08 6.46569E-04
 -1        34-1.63594E-03 2.92740E-14 6.50313E-03-1.41686E-07-7.27657E-09 4.99762E-04
 -1        35-5.51502E-04-4.29957E-15 1.02469E-03 2.52248E-08-2.56552E-08 6.46813E-04
 -1        36-1.63794E-03 2.92740E-14 6.50271E-03-1.41686E-07-7.27661E-09 5.00010E-04
 -1        37-5.71526E-04 1.22302E-14 1.08017E-03 9.14327E-08-3.21997E-08 4.91097E-04
 -1        38-1.89590E-03 4.47110E-15 7.71252E-03-6.24872E-08-6.07258E-08 3.79408E-04
 -1        39-5.71953E-04 1.22302E-14 1.08005E-03 9.14326E-08-3.21997E-08 4.91388E-04
 -1        40-1.89774E-03 4.47110E-15 7.71197E-03-6.24870E-08-6.07259E-08 3.79681E-04
 -1        41-5.92513E-04 4.24176E-14 1.13441E-03 1.53894E-07-4.77861E-08 3.47502E-04
 -1        42-2.10430E-03 5.50067E-15 8.65171E-03 5.40047E-09-9.71306E-08 2.62061E-04
 -1        43-5.92796E-04 4.24176E-14 1.13428E-03 1.53894E-07-4.77861E-08 3.47046E-04
 -1        44-2.10608E-03 5.50067E-15 8.65154E-03 5.40052E-09-9.71306E-08 2.61508E-04
 -1        45-6.11905E-04-5.10118E-15 1.18981E-03 1.96557E-08-5.46506E-08 2.19566E-04
 -1        46-2.26038E-03 4.56634E-14 9.34358E-03-1.50071E-07-8.92571E-08 1.61041E-04
 -1        47-6.12202E-04-5.10118E-15 1.19004E-03 1.96557E-08-5.46506E-08 2.19071E-04
 -1        48-2.26242E-03 4.56634E-14 9.34418E-03-1.50071E-07-8.92570E-08 1.60346E-04
 -1        49-6.28486E-04 1.65886E-15 1.23313E-03 8.41806E-08-1.03545E-08 8.99831E-05
 -1        50-2.35961E-03 2.86330E-14 9.74777E-03-1.58707E-07 3.26213E-09 7.01894E-05
 -1        51-6.29328E-04 1.65886E-15 1.23367E-03 8.41806E-08-1.03544E-08 9.02257E-05
 -1        52-2.36252E-03 2.86330E-14 9.74859E-03-1.58706E-07 3.26207E-09 7.04654E-05
 -1        53-6.16802E-04 3.12977E-15 1.25218E-03 6.49121E-08 3.42876E-08-1.01970E-04
 -1        54-2.34030E-03 1.08361E-14 9.74350E-03-8.57212E-08 4.96847E-08-6.96652E-05
 -1        55-6.16984E-04 3.12977E-15 1.25252E-03 6.49121E-08 3.42876E-08-1.01780E-04
 -1        56-2.34210E-03 1.08361E-14 9.74378E-03-8.57210E-08 4.96847E-08-6.94363E-05
 -1        57-5.93911E-04-4.06287E-15 1.25670E-03 4.12282E-08 4.53732E-08-3.05554E-04
 -1        58-2.20756E-03 2.18054E-14 9.26598E-03-1.12000E-07 5.12536E-08-2.25149E-04
 -1        59-5.93688E-04-4.06287E-15 1.25694E-03 4.12282E-08 4.53733E-08-3.05417E-04
 -1        60-2.20940E-03 2.18054E-14 9.26639E-03-1.12000E-07 5.12536E-08-2.25148E-04
 -1        61-5.77743E-04 3.62998E-14 1.25467E-03 1.42301E-07 7.33800E-08-4.83379E-04
 -1        62-1.99807E-03 1.98157E-14 8.39465E-03-9.52391E-08 1.19205E-07-3.66698E-04
 -1        63-5.78377E-04 3.62998E-14 1.25445E-03 1.42301E-07 7.33800E-08-4.83026E-04
 -1        64-2.00092E-03 1.98157E-14 8.39390E-03-9.52388E-08 1.19205E-07-3.66106E-04
 -1        65-5.35386E-04-5.66898E-15 1.25372E-03 7.42967E-08 6.92509E-09-6.45590E-04
 -1        66-1.70911E-03-1.15074E-14 7.20075E-03-5.21466E-09-7.26962E-08-4.84483E-04
 -1        67-5.34126E-04-5.66898E-15 1.25379E-03 7.42968E-08 6.92505E-09-6.45961E-04
 -1        68-1.71006E-03-1.15074E-14 7.20112E-03-5.21469E-09-7.26962E-08-4.85058E-04
 -1        69-5.04345E-04 1.10349E-14 1.18590E-03 1.21131E-07 8.36926E-08-7.67165E-04
 -1        70-1.32271E-03 4.85208E-14 5.61597E-03-1.25898E-07 1.82725E-07-5.75212E-04
 -1        71-5.03891E-04 1.10349E-14 1.18622E-03 1.21132E-07 8.36926E-08-7.66655E-04
 -1        72-1.32568E-03 4.85208E-14 5.61568E-03-1.25897E-07 1.82725E-07-5.74590E-04
 -1        73-3.92789E-04-2.03975E-14 9.97713E-04 6.02078E-09 5.92148E-08-8.05740E-04
 -1        74-9.20977E-04 4.57089E-15 3.67233E-03 4.35502E-09-1.19754E-07-4.76011E-04
 -1        75-3.91936E-04-2.03975E-14 9.96711E-04 6.02077E-09 5.92147E-08-8.05334E-04
 -1        76-9.20997E-04 4.57089E-15 3.67054E-03 4.35500E-09-1.19754E-07-4.77476E-04
 -1        77-2.76196E-04 1.02783E-13 6.22668E-04 3.88063E-07-8.37518E-08-5.57562E-04
 -1        78-1.01887E-04-3.63392E-14 2.19818E-03-2.55608E-07-1.14408E-07-6.16879E-04
 -1        79-2.76446E-04 1.02783E-13 6.21516E-04 3.88063E-07-8.37523E-08-5.59422E-04
 -1        80-1.09611E-04-3.63392E-14 2.20031E-03-2.55608E-07-1.14409E-07-6.15267E-04
 -1        81-9.56549E-05 8.98080E-14 3.65671E-04-4.84473E-07-1.33022E-07-1.97271E-04
 -1        82-1.20768E-03 2.87181E-13 1.75872E-03 6.02003E-07 2.36101E-07-4.11051E-04
 -1        83-9.28577E-05 8.98080E-14 3.65081E-04-4.84474E-07-1.33020E-07-2.01980E-04
 -1        84-1.19465E-03 2.87181E-13 1.76292E-03 6.02009E-07 2.36104E-07-4.03694E-04
 -1        85-4.59815E-05 2.36071E-15 2.33627E-02-1.26421E-11-4.75325E-14 1.14589E-02
 -1        86-6.16779E-03-1.21107E-14 2.08815E-02-3.22454E-08 5.45604E-09 3.47288E-03
 -1        87-4.59790E-05 2.36071E-15 2.33628E-02-1.26277E-11-4.75330E-14 1.14587E-02
 -1        88-6.16515E-03-1.21107E-14 2.08816E-02-3.22454E-08 5.45604E-09 3.47281E-03
 -1        89-3.45942E-03 2.88312E-15 1.53647E-02-1.99052E-08 2.87757E-08 1.92029E-03
 -1        90-3.45903E-03 2.88312E-15 1.53648E-02-1.99052E-08 2.87757E-08 1.92022E-03
 -1        91-2.53668E-03 1.75285E-15 9.92186E-03-5.08397E-08 2.05432E-08 1.82233E-03
 -1        92-2.53556E-03 1.75285E-15 9.92173E-03-5.08397E-08 2.05432E-08 1.82252E-03
 -1        93-1.53891E-03-3.53737E-16 5.54024E-03 3.72368E-08 6.96465E-09 1.44940E-03
 -1        94-1.53816E-03-3.53737E-16 5.54011E-03 3.72368E-08 6.96466E-09 1.44965E-03
 -1        95-7.81068E-04-4.36941E-15 1.97912E-03-1.70971E-08-8.47674E-10 1.17974E-03
 -1        96-7.79898E-04-4.36941E-15 1.97891E-03-1.70972E-08-8.47665E-10 1.17963E-03
 -1        97-1.86155E-04 9.22050E-15-8.43682E-04-8.03648E-08-2.87977E-08 9.39646E-04
 -1        98-1.84953E-04 9.22050E-15-8.43992E-04-8.03649E-08-2.87977E-08 9.39856E-04
 -1        99 2.37290E-04 2.31184E-15-2.95604E-03-1.19965E-08-5.21183E-08 7.01201E-04
 -1       100 2.38227E-04 2.31184E-15-2.95624E-03-1.19966E-08-5.21182E-08 7.01457E-04
 -1       101 5.34015E-04 9.71060E-15-4.44366E-03-5.17558E-08-6.23812E-08 5.11513E-04
 -1       102 5.34939E-04 9.71060E-15-4.44352E-03-5.17559E-08-6.23812E-08 5.11798E-04
 -1       103 7.52845E-04-1.62268E-15-5.52794E-03 8.78899E-09-2.80808E-08 3.89378E-04
 -1       104 7.53838E-04-1.62268E-15-5.52766E-03 8.78900E-09-2.80808E-08 3.89671E-04
 -1       105 9.19276E-04-1.95861E-15-6.35106E-03 5.30433E-08-1.51999E-08 2.70896E-04
 -1       106 9.20489E-04-1.95861E-15-6.35085E-03 5.30433E-08-1.52000E-08 2.70374E-04
 -1       107 1.03657E-03 9.04351E-15-6.93758E-03-1.00586E-07 7.26849E-09 1.68464E-04
 -1       108 1.03802E-03 9.04351E-15-6.93769E-03-1.00586E-07 7.26854E-09 1.67882E-04
 -1       109 1.10263E-03-2.30250E-15-7.26370E-03-1.81562E-08-3.19666E-08 7.22822E-05
 -1       110 1.10386E-03-2.30250E-15-7.26409E-03-1.81562E-08-3.19665E-08 7.25501E-05
 -1       111 1.10669E-03 7.97051E-16-7.21088E-03-5.52199E-08-5.71114E-08-7.55946E-05
 -1       112 1.10813E-03 7.97051E-16-7.21020E-03-5.52201E-08-5.71114E-08-7.54420E-05
 -1       113 1.01974E-03 3.67107E-14-6.72171E-03-1.49092E-07 8.11193E-08-2.34357E-04
 -1       114 1.02203E-03 3.67107E-14-6.72117E-03-1.49093E-07 8.11193E-08-2.34375E-04
 -1       115 8.42587E-04-1.59632E-14-5.86152E-03 1.08165E-08 3.28888E-08-3.80121E-04
 -1       116 8.44167E-04-1.59632E-14-5.86184E-03 1.08165E-08 3.28888E-08-3.80082E-04
 -1       117 6.38334E-04 5.78187E-14-4.66673E-03-2.15042E-07 2.92823E-08-5.05718E-04
 -1       118 6.41807E-04 5.78187E-14-4.66727E-03-2.15043E-07 2.92825E-08-5.06489E-04
 -1       119 3.14025E-04 4.53924E-14-3.16668E-03-2.01362E-07-5.62196E-08-6.36438E-04
 -1       120 3.17897E-04 4.53924E-14-3.16679E-03-2.01362E-07-5.62196E-08-6.35370E-04
 -1       121 1.35400E-04 3.57264E-14-1.63454E-03-1.37810E-07 1.16893E-08-6.39023E-04
 -1       122 1.37126E-04 3.57264E-14-1.63411E-03-1.37810E-07 1.16892E-08-6.38777E-04
 -1       123-4.50505E-04-5.54231E-15-3.21055E-04-2.13933E-07 1.54236E-08-7.90258E-04
 -1       124-4.43281E-04-5.54231E-15-3.20762E-04-2.13934E-07 1.54237E-08-7.90035E-04
 -1       125 1.01637E-03-5.45055E-14 2.79109E-04 1.35287E-07 6.09877E-08-1.26956E-03
 -1       126 1.00893E-03-5.45055E-14 2.79655E-04 1.35287E-07 6.09868E-08-1.26862E-03
 -3
    1PSTEP                        24           6           3          
  100CL  106 2.60000E-01         126                     1    6           1
 -4  ERROR       1    1
 -5  STR(%)      1    1    0    0
 -1         1 6.46429E+01
 -1         2 6.46429E+01
 -1         3 6.46429E+01
 -1         4 6.46429E+01
 -1         5 6.46429E+01
 -1         6 6.46429E+01
 -1         7 6.46429E+01
 -1         8 6.46429E+01
 -1         9 6.45757E+01
 -1        10 6.45757E+01
 -1        11 6.45757E+01
 -1        12 6.45757E+01
 -1        13 6.45757E+01
 -1        14 6.45757E+01
 -1        15 6.45757E+01
 -1        16 6.45757E+01
 -1        17 6.16202E+01
 -1        18 6.16202E+01
 -1        19 6.16202E+01
 -1        20 6.16202E+01
 -1        21 4.45193E+01
 -1        22 4.45193E+01
 -1        23 4.45193E+01
 -1        24 4.45193E+01
 -1        25 6.14191E+01
 -1        26 4.02006E+01
 -1        27 6.14191E+01
 -1        28 4.02006E+01
 -1        29 7.86128E+01
 -1        30 4.86234E+01
 -1        31 7.86128E+01
 -1        32 4.86234E+01
 -1        33 7.86128E+01
 -1        34 5.05875E+01
 -1        35 7.86128E+01
 -1        36 5.05875E+01
 -1        37 7.64900E+01
 -1        38 5.12176E+01
 -1        39 7.64900E+01
 -1        40 5.12176E+01
 -1        41 7.36200E+01
 -1        42 5.12176E+01
 -1        43 7.36200E+01
 -1        44 5.12176E+01
 -1        45 7.15237E+01
 -1        46 5.11973E+01
 -1        47 7.15237E+01
 -1        48 5.11973E+01
 -1        49 7.05426E+01
 -1        50 5.10454E+01
 -1        51 7.05426E+01
 -1        52 5.10454E+01
 -1        53 7.16172E+01
 -1        54 5.06915E+01
 -1        55 7.16172E+01
 -1        56 5.06915E+01
 -1        57 7.45411E+01
 -1        58 5.06915E+01
 -1        59 7.45411E+01
 -1        60 5.06915E+01
 -1        61 7.92469E+01
 -1        62 5.02747E+01
 -1        63 7.92469E+01
 -1        64 5.02747E+01
 -1        65 8.35397E+01
 -1        66 4.91459E+01
 -1        67 8.35397E+01
 -1        68 4.91459E+01
 -1        69 8.35397E+01
 -1        70 4.62145E+01
 -1        71 8.35397E+01
 -1        72 4.62145E+01
 -1        73 1.02020E+02
 -1        74 4.19584E+01
 -1        75 1.02020E+02
 -1        76 4.19584E+01
 -1        77 1.02020E+02
 -1        78 6.28958E+01
 -1        79 1.02020E+02
 -1        80 6.28958E+01
 -1        81 6.28958E+01
 -1        82 6.28958E+01
 -1        83 6.28958E+01
 -1        84 6.28958E+01
 -1        85 6.35931E+01
 -1        86 6.35931E+01
 -1        87 6.35931E+01
 -1        88 6.35931E+01
 -1        89 5.87240E+01
 -1        90 5.87240E+01
 -1        91 5.67205E+01
 -1        92 5.67205E+01
 -1        93 5.05196E+01
 -1        94 5.05196E+01
 -1        95 3.37366E+01
 -1        96 3.37366E+01
 -1        97 6.14191E+01
 -1        98 6.14191E+01
 -1        99 7.86128E+01
 -1       100 7.86128E+01
 -1       101 7.86128E+01
 -1       102 7.86128E+01
 -1       103 7.64900E+01
 -1       104 7.64900E+01
 -1       105 7.36200E+01
 -1       106 7.36200E+01
 -1       107 7.15237E+01
 -1       108 7.15237E+01
 -1       109 7.05426E+01
 -1       110 7.05426E+01
 -1       111 7.16172E+01
 -1       112 7.16172E+01
 -1       113 7.45411E+01
 -1       114 7.45411E+01
 -1       115 7.92469E+01
 -1       116 7.92469E+01
 -1       117 8.35397E+01
 -1       118 8.35397E+01
 -1       119 8.35397E+01
 -1       120 8.35397E+01
 -1       121 1.02020E+02
 -1       122 1.02020E+02
 -1       123 1.02020E+02
 -1       124 1.02020E+02
 -1       125 4.04322E+01
 -1       126 4.04322E+01
 -3
    1PSTEP                        25           7           3          
  100CL  107 2.70000E-01         126                     1    7           1
 -4  DISP        4    1
 -5  D1          1    2    1    0
 -5  D2          1    2    2    0
 -5  D3          1    2    3    0
 -5  ALL         1    2    0    0    1ALL
 -1         1 0.00000E+00 0.00000E+00 0.00000E+00
 -1         2 0.00000E+00 0.00000E+00 0.00000E+00
 -1         3 8.49228E-04 0.00000E+00-9.00471E-06
 -1         4 1.12788E-03 0.00000E+00-1.19729E-03
 -1         5 0.00000E+00 0.00000E+00 0.00000E+00
 -1         6 0.00000E+00 0.00000E+00 0.00000E+00
 -1         7 8.49133E-04 0.00000E+00-9.01876E-06
 -1         8 1.12790E-03 0.00000E+00-1.19726E-03
 -1         9 2.90184E-03 0.00000E+00-3.99652E-05
 -1        10 3.00634E-03 0.00000E+00-2.15754E-03
 -1        11 2.90177E-03 0.00000E+00-3.99562E-05
 -1        12 3.00623E-03 0.00000E+00-2.15749E-03
 -1        13 5.64573E-03 0.00000E+00-9.80754E-05
 -1        14 5.67554E-03 0.00000E+00-2.83310E-03
 -1        15 5.64570E-03 0.00000E+00-9.80637E-05
 -1        16 5.67552E-03 0.00000E+00-2.83308E-03
 -1        17 8.84075E-03 0.00000E+00-1.78385E-04
 -1        18 8.79520E-03 0.00000E+00-3.27487E-03
 -1        19 8.84073E-03 0.00000E+00-1.78397E-04
 -1        20 8.79517E-03 0.00000E+00-3.27486E-03
 -1        21 1.22308E-02 0.00000E+00-2.66354E-04
 -1        22 1.21350E-02 0.00000E+00-3.51603E-03
 -1        23 1.22308E-02 0.00000E+00-2.66367E-04
 -1        24 1.21349E-02 0.00000E+00-3.51602E-03
 -1        25 1.56452E-02 0.00000E+00-3.50597E-04
 -1        26 1.55186E-02 0.00000E+00-3.59882E-03
 -1        27 1.56452E-02 0.00000E+00-3.50595E-04
 -1        28 1.55185E-02 0.00000E+00-3.59883E-03
 -1        29 1.89742E-02 0.00000E+00-4.22773E-04
 -1        30 1.88280E-02 0.00000E+00-3.54852E-03
 -1        31 1.89742E-02 0.00000E+00-4.22778E-04
 -1        32 1.88279E-02 0.00000E+00-3.54855E-03
 -1        33 2.21197E-02 0.00000E+00-4.73894E-04
 -1        34 2.19600E-02 0.00000E+00-3.36968E-03
 -1        35 2.21197E-02 0.00000E+00-4.73906E-04
 -1        36 2.19600E-02 0.00000E+00-3.36972E-03
 -1        37 2.49683E-02 0.00000E+00-4.96826E-04
 -1        38 2.48027E-02 0.00000E+00-3.06483E-03
 -1        39 2.49683E-02 0.00000E+00-4.96829E-04
 -1        40 2.48026E-02 0.00000E+00-3.06485E-03
 -1        41 2.74137E-02 0.00000E+00-4.89233E-04
 -1        42 2.72511E-02 0.00000E+00-2.65478E-03
 -1        43 2.74136E-02 0.00000E+00-4.89236E-04
 -1        44 2.72510E-02 0.00000E+00-2.65478E-03
 -1        45 2.93946E-02 0.00000E+00-4.53614E-04
 -1        46 2.92420E-02 0.00000E+00-2.17789E-03
 -1        47 2.93945E-02 0.00000E+00-4.53611E-04
 -1        48 2.92419E-02 0.00000E+00-2.17787E-03
 -1        49 3.08993E-02 0.00000E+00-3.96765E-04
 -1        50 3.07608E-02 0.00000E+00-1.67302E-03
 -1        51 3.08993E-02 0.00000E+00-3.96747E-04
 -1        52 3.07608E-02 0.00000E+00-1.67300E-03
 -1        53 3.19449E-02 0.00000E+00-3.27302E-04
 -1        54 3.18197E-02 0.00000E+00-1.16521E-03
 -1        55 3.19448E-02 0.00000E+00-3.27280E-04
 -1        56 3.18197E-02 0.00000E+00-1.16522E-03
 -1        57 3.25505E-02 0.00000E+00-2.52700E-04
 -1        58 3.24366E-02 0.00000E+00-6.66605E-04
 -1        59 3.25505E-02 0.00000E+00-2.52663E-04
 -1        60 3.24365E-02 0.00000E+00-6.66619E-04
 -1        61 3.27182E-02 0.00000E+00-1.79132E-04
 -1        62 3.26175E-02 0.00000E+00-1.93237E-04
 -1        63 3.27181E-02 0.00000E+00-1.79093E-04
 -1        64 3.26175E-02 0.00000E+00-1.93287E-04
 -1        65 3.24745E-02 0.00000E+00-1.11405E-04
 -1        66 3.23912E-02 0.00000E+00 2.23201E-04
 -1        67 3.24745E-02 0.00000E+00-1.11342E-04
 -1        68 3.23912E-02 0.00000E+00 2.23307E-04
 -1        69 3.18944E-02 0.00000E+00-5.64358E-05
 -1        70 3.18353E-02 0.00000E+00 5.45560E-04
 -1        71 3.18943E-02 0.00000E+00-5.64250E-05
 -1        72 3.18353E-02 0.00000E+00 5.45527E-04
 -1        73 3.10999E-02 0.00000E+00-1.72126E-05
 -1        74 3.10571E-02 0.00000E+00 7.68448E-04
 -1        75 3.10998E-02 0.00000E+00-1.72345E-05
 -1        76 3.10570E-02 0.00000E+00 7.68408E-04
 -1        77 3.01786E-02 0.00000E+00 1.32385E-05
 -1        78 3.01750E-02 0.00000E+00 8.91693E-04
 -1        79 3.01785E-02 0.00000E+00 1.32448E-05
 -1        80 3.01752E-02 0.00000E+00 8.91699E-04
 -1        81 2.92562E-02 0.00000E+00 1.99559E-05
 -1        82 2.91895E-02 0.00000E+00 9.61363E-04
 -1        83 2.92565E-02 0.00000E+00 1.99849E-05
 -1        84 2.91891E-02 0.00000E+00 9.61146E-04
 -1        85 0.00000E+00 0.00000E+00 0.00000E+00
 -1        86 1.16681E-03 0.00000E+00 1.16366E-03
 -1        87 0.00000E+00 0.00000E+00 0.00000E+00
 -1        88 1.16691E-03 0.00000E+00 1.16369E-03
 -1        89 3.11197E-03 0.00000E+00 2.06222E-03
 -1        90 3.11202E-03 0.00000E+00 2.06227E-03
 -1        91 5.84053E-03 0.00000E+00 2.62396E-03
 -1        92 5.84065E-03 0.00000E+00 2.62401E-03
 -1        93 9.00494E-03 0.00000E+00 2.91183E-03
 -1        94 9.00506E-03 0.00000E+00 2.91183E-03
 -1        95 1.23687E-02 0.00000E+00 2.98231E-03
 -1        96 1.23688E-02 0.00000E+00 2.98228E-03
 -1        97 1.57562E-02 0.00000E+00 2.90115E-03
 -1        98 1.57563E-02 0.00000E+00 2.90113E-03
 -1        99 1.90566E-02 0.00000E+00 2.71128E-03
 -1       100 1.90567E-02 0.00000E+00 2.71129E-03
 -1       101 2.21706E-02 0.00000E+00 2.43329E-03
 -1       102 2.21708E-02 0.00000E+00 2.43329E-03
 -1       103 2.49864E-02 0.00000E+00 2.08302E-03
 -1       104 2.49865E-02 0.00000E+00 2.08300E-03
 -1       105 2.74035E-02 0.00000E+00 1.68671E-03
 -1       106 2.74036E-02 0.00000E+00 1.68669E-03
 -1       107 2.93651E-02 0.00000E+00 1.27771E-03
 -1       108 2.93652E-02 0.00000E+00 1.27766E-03
 -1       109 3.08579E-02 0.00000E+00 8.82456E-04
 -1       110 3.08580E-02 0.00000E+00 8.82409E-04
 -1       111 3.18959E-02 0.00000E+00 5.10275E-04
 -1       112 3.18960E-02 0.00000E+00 5.10303E-04
 -1       113 3.24981E-02 0.00000E+00 1.57196E-04
 -1       114 3.24983E-02 0.00000E+00 1.57208E-04
 -1       115 3.26685E-02 0.00000E+00-1.71825E-04
 -1       116 3.26686E-02 0.00000E+00-1.71821E-04
 -1       117 3.24375E-02 0.00000E+00-4.54126E-04
 -1       118 3.24377E-02 0.00000E+00-4.54194E-04
 -1       119 3.18745E-02 0.00000E+00-6.63782E-04
 -1       120 3.18746E-02 0.00000E+00-6.63814E-04
 -1       121 3.10899E-02 0.00000E+00-7.95394E-04
 -1       122 3.10899E-02 0.00000E+00-7.95352E-04
 -1       123 3.02027E-02 0.00000E+00-8.56585E-04
 -1       124 3.02030E-02 0.00000E+00-8.56598E-04
 -1       125 2.92046E-02 0.00000E+00-8.65176E-04
 -1       126 2.92046E-02 0.00000E+00-8.65258E-04
 -3
    1PSTEP                        26           7           3          
  100CL  107 2.70000E-01         126                     1    7           1
 -4  STRESS      6    1
 -5  SXX         1    4    1    1
 -5  SYY         1    4    2    2
 -5  SZZ         1    4    3    3
 -5  SXY         1    4    1    2
 -5  SYZ         1    4    2    3
 -5  SZX         1    4    3    1
 -1         1-5.40049E+03-5.53310E+03-1.24141E+04 5.04783E-05 2.38312E-05 3.20910E+03
 -1         2 5.88749E+01-8.25957E+00-1.34549E+02-3.54141E-05-1.90439E-04 2.61045E+03
 -1         3 6.76631E+01-7.93558E+00-1.11517E+02-4.87464E-02-7.54501E-03 8.29023E+02
 -1         4-1.64087E+03-3.51451E+03-9.74376E+03 8.95024E-03 1.66234E-02 8.32572E+02
 -1         5-5.40032E+03-5.53293E+03-1.24137E+04 5.04675E-05 2.38264E-05 3.20916E+03
 -1         6 5.87752E+01-8.33187E+00-1.34718E+02-3.54301E-05-1.90438E-04 2.61015E+03
 -1         7 6.72616E+01-8.11226E+00-1.11664E+02-4.87463E-02-7.54499E-03 8.28929E+02
 -1         8-1.63955E+03-3.51387E+03-9.74299E+03 8.95024E-03 1.66234E-02 8.32553E+02
 -1         9 7.69385E+01 2.62097E+01-1.25596E+01-3.78219E-02 4.42307E-03 8.85391E+02
 -1        10-1.87035E+03-2.84501E+03-7.41885E+03-5.61605E-02 2.56777E-02 3.47503E+02
 -1        11 7.61339E+01 2.58954E+01-1.27955E+01-3.78218E-02 4.42304E-03 8.85516E+02
 -1        12-1.87078E+03-2.84522E+03-7.41911E+03-5.61604E-02 2.56777E-02 3.47574E+02
 -1        13 9.97234E+01 5.27029E+01 7.07833E+01-1.56515E-02 5.92622E-03 7.41586E+02
 -1        14-1.00163E+03-1.70571E+03-4.60753E+03-1.14687E-02 1.06485E-02 3.82336E+02
 -1        15 9.89471E+01 5.23414E+01 7.03610E+01-1.56514E-02 5.92621E-03 7.41629E+02
 -1        16-1.00162E+03-1.70576E+03-4.60772E+03-1.14687E-02 1.06485E-02 3.82467E+02
 -1        17 9.71008E+01 7.07174E+01 1.38831E+02-9.60794E-03-6.38347E-03 6.15797E+02
 -1        18-4.96793E+02-8.60006E+02-2.34751E+03-1.88488E-02 4.75374E-03 3.48815E+02
 -1        19 9.62042E+01 7.02995E+01 1.38337E+02-9.60790E-03-6.38346E-03 6.15814E+02
 -1        20-4.97039E+02-8.60131E+02-2.34768E+03-1.88488E-02 4.75373E-03 3.48820E+02
 -1        21 8.12919E+01 8.57308E+01 2.06560E+02-1.60715E-02-6.56446E-03 4.76672E+02
 -1        22-7.24599E+01-1.79518E+02-5.21806E+02-3.27993E-02 4.52253E-03 3.29835E+02
 -1        23 8.02170E+01 8.52856E+01 2.06153E+02-1.60714E-02-6.56447E-03 4.76713E+02
 -1        24-7.28632E+01-1.79715E+02-5.22058E+02-3.27993E-02 4.52252E-03 3.29863E+02
 -1        25 7.45500E+01 1.03976E+02 2.73747E+02-2.24791E-02 1.10295E-03 3.82441E+02
 -1        26 2.56156E+02 3.44556E+02 8.97991E+02-3.31851E-02-3.07902E-03 3.25191E+02
 -1        27 7.36079E+01 1.03583E+02 2.73376E+02-2.24790E-02 1.10295E-03 3.82443E+02
 -1        28 2.55860E+02 3.44388E+02 8.97725E+02-3.31851E-02-3.07901E-03 3.25165E+02
 -1        29 6.87479E+01 1.24731E+02 3.47375E+02-2.64506E-02-2.40979E-03 3.40153E+02
 -1        30 5.24067E+02 7.82844E+02 2.10314E+03-3.30179E-02-1.22600E-02 3.44921E+02
 -1        31 6.78587E+01 1.24335E+02 3.46940E+02-2.64505E-02-2.40979E-03 3.40203E+02
 -1        32 5.23872E+02 7.82720E+02 2.10292E+03-3.30179E-02-1.22600E-02 3.44918E+02
 -1        33 5.64348E+01 1.47515E+02 4.33905E+02 2.56360E-03-5.92413E-03 3.05882E+02
 -1        34 7.47320E+02 1.17677E+03 3.21277E+03-1.43324E-02-2.02848E-02 3.57588E+02
 -1        35 5.54065E+01 1.47081E+02 4.33483E+02 2.56359E-03-5.92413E-03 3.05881E+02
 -1        36 7.46984E+02 1.17663E+03 3.21265E+03-1.43324E-02-2.02848E-02 3.57531E+02
 -1        37 4.44491E+01 1.71824E+02 5.25134E+02-1.11442E-02-1.43295E-03 2.37681E+02
 -1        38 9.29640E+02 1.51192E+03 4.17092E+03-2.55785E-02-1.17886E-02 3.26322E+02
 -1        39 4.34705E+01 1.71419E+02 5.24756E+02-1.11441E-02-1.43294E-03 2.37556E+02
 -1        40 9.29402E+02 1.51187E+03 4.17098E+03-2.55785E-02-1.17885E-02 3.26153E+02
 -1        41 3.42239E+01 1.93738E+02 6.06791E+02-4.05095E-02-1.46945E-03 1.42922E+02
 -1        42 1.04936E+03 1.73972E+03 4.82948E+03-5.12155E-02-3.07209E-03 2.51867E+02
 -1        43 3.33366E+01 1.93367E+02 6.06433E+02-4.05093E-02-1.46947E-03 1.42974E+02
 -1        44 1.04923E+03 1.73972E+03 4.82961E+03-5.12155E-02-3.07209E-03 2.51864E+02
 -1        45 2.60954E+01 2.09581E+02 6.66714E+02-5.51546E-03 1.43616E-03 5.70389E+01
 -1        46 1.09840E+03 1.84081E+03 5.12654E+03-2.54037E-02 9.45607E-03 1.65825E+02
 -1        47 2.50507E+01 2.09158E+02 6.66348E+02-5.51542E-03 1.43614E-03 5.72553E+01
 -1        48 1.09806E+03 1.84069E+03 5.12649E+03-2.54037E-02 9.45604E-03 1.66018E+02
 -1        49 2.92768E+01 2.20071E+02 6.98182E+02-7.81224E-03 9.04712E-03 2.70113E-01
 -1        50 1.10644E+03 1.85002E+03 5.14954E+03-6.01056E-03 8.49898E-03 9.13910E+01
 -1        51 2.83937E+01 2.19719E+02 6.97886E+02-7.81221E-03 9.04712E-03 2.86422E-01
 -1        52 1.10642E+03 1.84997E+03 5.14941E+03-6.01057E-03 8.49898E-03 9.13615E+01
 -1        53 3.71014E+01 2.22479E+02 6.98599E+02-3.48279E-02 1.14760E-02-3.21273E+01
 -1        54 1.08915E+03 1.81028E+03 5.03015E+03-3.29771E-02-4.67717E-03 3.29183E+01
 -1        55 3.62995E+01 2.22164E+02 6.98346E+02-3.48278E-02 1.14760E-02-3.22004E+01
 -1        56 1.08912E+03 1.81023E+03 5.03001E+03-3.29771E-02-4.67713E-03 3.27597E+01
 -1        57 4.32470E+01 2.16565E+02 6.73793E+02-1.44658E-02 1.90851E-02-7.53647E+01
 -1        58 1.04756E+03 1.73326E+03 4.80814E+03-2.53088E-02-7.43684E-03-3.16207E+01
 -1        59 4.21214E+01 2.16106E+02 6.73387E+02-1.44657E-02 1.90851E-02-7.54047E+01
 -1        60 1.04724E+03 1.73307E+03 4.80782E+03-2.53087E-02-7.43682E-03-3.17276E+01
 -1        61 5.96639E+01 2.10280E+02 6.37889E+02-3.62781E-02 1.99694E-02-1.50257E+02
 -1        62 9.74887E+02 1.58946E+03 4.38924E+03-1.57410E-02-2.62481E-02-1.14916E+02
 -1        63 5.91932E+01 2.10115E+02 6.37799E+02-3.62781E-02 1.99694E-02-1.50281E+02
 -1        64 9.75590E+02 1.58992E+03 4.39008E+03-1.57411E-02-2.62482E-02-1.15112E+02
 -1        65 6.25117E+01 1.90468E+02 5.70561E+02 4.93788E-03 3.20206E-02-2.27582E+02
 -1        66 8.32430E+02 1.33263E+03 3.65637E+03 2.90503E-03 5.53393E-02-1.86009E+02
 -1        67 6.16414E+01 1.90061E+02 5.70071E+02 4.93791E-03 3.20206E-02-2.27374E+02
 -1        68 8.32428E+02 1.33266E+03 3.65645E+03 2.90507E-03 5.53393E-02-1.85810E+02
 -1        69 7.62206E+01 1.65954E+02 4.76104E+02-5.72771E-02 5.64984E-03-2.57293E+02
 -1        70 6.86763E+02 1.02200E+03 2.74675E+03 3.39448E-03-1.69952E-02-2.14973E+02
 -1        71 7.53494E+01 1.65472E+02 4.75363E+02-5.72769E-02 5.64988E-03-2.57413E+02
 -1        72 6.87701E+02 1.02220E+03 2.74649E+03 3.39449E-03-1.69952E-02-2.15268E+02
 -1        73 9.27509E+01 1.47452E+02 3.98986E+02-3.49411E-02-1.11272E-02-2.36802E+02
 -1        74 4.40880E+02 6.61298E+02 1.77509E+03-5.10994E-02-2.07650E-02-1.48439E+02
 -1        75 9.20772E+01 1.47156E+02 3.98673E+02-3.49410E-02-1.11271E-02-2.36997E+02
 -1        76 4.40609E+02 6.61233E+02 1.77514E+03-5.10996E-02-2.07651E-02-1.48219E+02
 -1        77 6.32372E+01 9.62982E+01 2.57633E+02-7.93286E-02 3.29442E-03-1.48624E+02
 -1        78 5.35849E+02 5.03939E+02 1.14902E+03 9.64211E-02 2.80087E-03-1.76714E+02
 -1        79 6.31559E+01 9.63324E+01 2.57823E+02-7.93284E-02 3.29432E-03-1.48050E+02
 -1        80 5.39158E+02 5.05121E+02 1.14966E+03 9.64212E-02 2.80056E-03-1.77122E+02
 -1        81 8.04908E+01 7.37317E+01 1.66339E+02 1.47084E-01 1.47839E-02-2.91022E+01
 -1        82-2.50366E+02 9.97075E+01 5.84663E+02-1.93492E-01-1.11493E-01-1.43702E+02
 -1        83 7.88484E+01 7.30779E+01 1.65815E+02 1.47083E-01 1.47841E-02-2.79603E+01
 -1        84-2.58428E+02 9.56471E+01 5.79194E+02-1.93487E-01-1.11490E-01-1.46221E+02
 -1        85 5.51912E+03 5.37064E+03 1.30055E+04 1.78303E-04 2.00172E-04 3.86179E+03
 -1        86 1.69782E+03 3.47678E+03 1.02259E+04 5.09669E-02 1.27127E-02 1.32982E+03
 -1        87 5.51926E+03 5.37075E+03 1.30058E+04 1.78386E-04 2.00181E-04 3.86212E+03
 -1        88 1.69588E+03 3.47601E+03 1.02252E+04 5.09664E-02 1.27127E-02 1.32980E+03
 -1        89 1.91581E+03 2.85384E+03 7.80240E+03 2.83315E-02 2.17516E-02 8.71406E+02
 -1        90 1.91453E+03 2.85334E+03 7.80201E+03 2.83313E-02 2.17516E-02 8.71349E+02
 -1        91 1.14700E+03 1.80190E+03 4.94877E+03 6.04382E-02 2.78174E-02 8.10704E+02
 -1        92 1.14537E+03 1.80116E+03 4.94792E+03 6.04377E-02 2.78174E-02 8.10693E+02
 -1        93 6.49576E+02 1.00006E+03 2.71506E+03 6.13939E-02 2.03037E-03 6.07086E+02
 -1        94 6.47921E+02 9.99243E+02 2.71400E+03 6.13934E-02 2.03037E-03 6.07085E+02
 -1        95 2.06861E+02 3.52045E+02 9.73789E+02 7.16657E-02-1.52169E-02 4.18651E+02
 -1        96 2.04974E+02 3.51208E+02 9.72882E+02 7.16651E-02-1.52168E-02 4.18722E+02
 -1        97-1.25194E+02-1.32054E+02-3.12724E+02 5.76886E-02-8.22065E-03 2.78140E+02
 -1        98-1.26823E+02-1.32715E+02-3.13296E+02 5.76882E-02-8.22063E-03 2.78166E+02
 -1        99-4.02974E+02-5.30104E+02-1.35752E+03 5.06653E-02 7.81776E-04 1.94331E+02
 -1       100-4.04534E+02-5.30750E+02-1.35811E+03 5.06649E-02 7.81805E-04 1.94425E+02
 -1       101-6.57276E+02-8.86908E+02-2.28271E+03 8.57702E-02 8.46219E-04 1.28734E+02
 -1       102-6.59053E+02-8.87694E+02-2.28354E+03 8.57695E-02 8.46240E-04 1.28770E+02
 -1       103-8.67540E+02-1.18097E+03-3.04049E+03 6.74632E-02-8.21069E-03 5.51662E+01
 -1       104-8.69283E+02-1.18175E+03-3.04134E+03 6.74627E-02-8.21070E-03 5.50768E+01
 -1       105-1.00826E+03-1.37002E+03-3.52070E+03 3.41668E-02-1.06250E-02-1.41564E+01
 -1       106-1.00992E+03-1.37079E+03-3.52157E+03 3.41665E-02-1.06250E-02-1.40484E+01
 -1       107-1.07342E+03-1.44285E+03-3.69499E+03 7.94581E-02-2.56567E-02-5.82532E+01
 -1       108-1.07526E+03-1.44368E+03-3.69590E+03 7.94574E-02-2.56565E-02-5.79367E+01
 -1       109-1.07232E+03-1.42993E+03-3.65448E+03 8.11772E-02-2.35521E-02-7.51078E+01
 -1       110-1.07403E+03-1.43057E+03-3.65488E+03 8.11765E-02-2.35520E-02-7.49928E+01
 -1       111-1.03792E+03-1.38428E+03-3.53945E+03 4.71317E-02 1.44218E-02-7.38416E+01
 -1       112-1.03952E+03-1.38489E+03-3.53989E+03 4.71313E-02 1.44218E-02-7.38354E+01
 -1       113-9.82660E+02-1.31778E+03-3.37596E+03 8.56700E-02 5.65661E-03-8.13823E+01
 -1       114-9.84832E+02-1.31875E+03-3.37700E+03 8.56692E-02 5.65661E-03-8.13384E+01
 -1       115-8.71928E+02-1.18120E+03-3.03756E+03 3.40151E-02 1.80359E-03-1.14544E+02
 -1       116-8.73604E+02-1.18203E+03-3.03862E+03 3.40148E-02 1.80360E-03-1.14450E+02
 -1       117-7.12098E+02-9.51814E+02-2.44226E+03 8.05794E-02-3.48561E-02-1.59573E+02
 -1       118-7.13772E+02-9.52579E+02-2.44312E+03 8.05787E-02-3.48558E-02-1.59078E+02
 -1       119-5.05874E+02-6.57621E+02-1.67734E+03 6.78213E-02-1.63972E-02-1.95987E+02
 -1       120-5.08242E+02-6.58493E+02-1.67787E+03 6.78206E-02-1.63973E-02-1.96069E+02
 -1       121-2.34018E+02-3.38686E+02-8.92394E+02 1.22967E-02 2.13546E-02-1.71692E+02
 -1       122-2.34984E+02-3.39077E+02-8.92735E+02 1.22968E-02 2.13546E-02-1.71759E+02
 -1       123-2.89680E+02-1.96423E+02-3.63862E+02 1.11581E-01-6.84580E-03-2.23089E+02
 -1       124-2.93961E+02-1.98422E+02-3.66237E+02 1.11579E-01-6.84567E-03-2.23185E+02
 -1       125 6.60938E+02 2.80446E+02 2.76483E+02-3.54598E-02-4.19227E-02-3.45403E+02
 -1       126 6.64534E+02 2.81806E+02 2.77433E+02-3.54595E-02-4.19230E-02-3.45929E+02
 -3
    1PSTEP                        27           7           3          
  100CL  107 2.70000E-01         126                     1    7           1
 -4  TOSTRAIN    6    1
 -5  EXX         1    4    1    1
 -5  EYY         1    4    2    2
 -5  EZZ         1    4    3    3
 -5  EXY         1    4    1    2
 -5  EYZ         1    4    2    3
 -5  EZX         1    4    3    1
 -1         1-4.97527E-05 9.60261E-16-2.34538E-02 1.98063E-10-1.06418E-13 1.12786E-02
 -1         2-4.94243E-05-4.34650E-15-8.52688E-05-1.02322E-10-3.27149E-13 8.49209E-03
 -1         3-1.32163E-04 2.44624E-14 5.44291E-05-1.57491E-07-2.80347E-08 2.70338E-03
 -1         4 5.83105E-03-1.11646E-14-2.08990E-02 2.72531E-08 5.61751E-08 3.48886E-03
 -1         5-4.97510E-05 9.60261E-16-2.34531E-02 1.98043E-10-1.06418E-13 1.12787E-02
 -1         6-4.94269E-05-4.34650E-15-8.55846E-05-1.02344E-10-3.27149E-13 8.49114E-03
 -1         7-1.32976E-04 2.44624E-14 5.45091E-05-1.57490E-07-2.80346E-08 2.70305E-03
 -1         8 5.83328E-03-1.11646E-14-2.08985E-02 2.72531E-08 5.61751E-08 3.48880E-03
 -1         9-1.81601E-04 2.08622E-14 2.62759E-04-1.23320E-07 9.02813E-09 2.87706E-03
 -1        10 2.96752E-03 6.91831E-14-1.51760E-02-1.86604E-07 7.72758E-08 1.95640E-03
 -1        11-1.83249E-04 2.08622E-14 2.63048E-04-1.23320E-07 9.02806E-09 2.87739E-03
 -1        12 2.96676E-03 6.91831E-14-1.51761E-02-1.86604E-07 7.72758E-08 1.95662E-03
 -1        13-1.65687E-04-6.09543E-15 3.81777E-04-5.18344E-08 1.64393E-08 2.39790E-03
 -1        14 2.08365E-03 1.31977E-15-9.43097E-03-3.93171E-08 3.27808E-08 1.91679E-03
 -1        15-1.67066E-04-6.09543E-15 3.81595E-04-5.18343E-08 1.64393E-08 2.39798E-03
 -1        16 2.08380E-03 1.31977E-15-9.43135E-03-3.93171E-08 3.27808E-08 1.91726E-03
 -1        17-1.83415E-04-6.83906E-15 4.85952E-04-2.97418E-08-2.26281E-08 1.97468E-03
 -1        18 1.00434E-03 6.82820E-15-4.71794E-03-6.21673E-08 1.16905E-08 1.51435E-03
 -1        19-1.84979E-04-6.83906E-15 4.85708E-04-2.97418E-08-2.26281E-08 1.97466E-03
 -1        20 1.00395E-03 6.82820E-15-4.71808E-03-6.21672E-08 1.16906E-08 1.51435E-03
 -1        21-2.23045E-04-8.19159E-15 5.93971E-04-5.06411E-08-2.46682E-08 1.50706E-03
 -1        22 1.97551E-04 2.13965E-14-9.73163E-04-1.07358E-07 7.75102E-09 1.16101E-03
 -1        23-2.25104E-04-8.19159E-15 5.94100E-04-5.06410E-08-2.46682E-08 1.50705E-03
 -1        24 1.96871E-04 2.13965E-14-9.73334E-04-1.07357E-07 7.75105E-09 1.16107E-03
 -1        25-2.60540E-04-1.14952E-15 7.10806E-04-7.31482E-08-1.17465E-09 1.18798E-03
 -1        26-4.19403E-04 2.28246E-14 1.91580E-03-1.06909E-07-1.69535E-08 9.08602E-04
 -1        27-2.62315E-04-1.14952E-15 7.10873E-04-7.31480E-08-1.17463E-09 1.18787E-03
 -1        28-4.19809E-04 2.28246E-14 1.91547E-03-1.06909E-07-1.69535E-08 9.08516E-04
 -1        29-3.25305E-04 2.68236E-15 8.64258E-04-8.53213E-08-1.31764E-08 1.03776E-03
 -1        30-9.66879E-04 2.47779E-14 4.36978E-03-1.04460E-07-4.62073E-08 7.83523E-04
 -1        31-3.26918E-04 2.68236E-15 8.64150E-04-8.53212E-08-1.31764E-08 1.03783E-03
 -1        32-9.67109E-04 2.47779E-14 4.36947E-03-1.04460E-07-4.62073E-08 7.83518E-04
 -1        33-4.22423E-04-1.40438E-14 1.05791E-03 9.39709E-09-1.87599E-08 9.13831E-04
 -1        34-1.51451E-03 1.00220E-14 6.63564E-03-4.25612E-08-6.79621E-08 6.80085E-04
 -1        35-4.24349E-04-1.40438E-14 1.05795E-03 9.39708E-09-1.87599E-08 9.13719E-04
 -1        36-1.51513E-03 1.00220E-14 6.63566E-03-4.25611E-08-6.79621E-08 6.79862E-04
 -1        37-5.13246E-04-1.06653E-14 1.25154E-03-3.60145E-08-6.61805E-09 6.85931E-04
 -1        38-1.99172E-03 1.39322E-14 8.57794E-03-8.09136E-08-4.21873E-08 5.04119E-04
 -1        39-5.15056E-04-1.06653E-14 1.25159E-03-3.60144E-08-6.61802E-09 6.85430E-04
 -1        40-1.99226E-03 1.39322E-14 8.57823E-03-8.09135E-08-4.21873E-08 5.03538E-04
 -1        41-5.85340E-04 2.10315E-14 1.41659E-03-1.31432E-07-1.04376E-08 3.80811E-04
 -1        42-2.31478E-03 5.25774E-14 9.89855E-03-1.65610E-07-1.69827E-08 2.76658E-04
 -1        43-5.87011E-04 2.10315E-14 1.41665E-03-1.31432E-07-1.04376E-08 3.80904E-04
 -1        44-2.31520E-03 5.25774E-14 9.89895E-03-1.65610E-07-1.69827E-08 2.76612E-04
 -1        45-6.38218E-04-1.62562E-14 1.53724E-03-1.82081E-08 4.22889E-09 1.12734E-04
 -1        46-2.45891E-03 1.20035E-14 1.04860E-02-8.34907E-08 2.76219E-08 8.32064E-05
 -1        47-6.40287E-04-1.62562E-14 1.53747E-03-1.82080E-08 4.22887E-09 1.13358E-04
 -1        48-2.45969E-03 1.20035E-14 1.04863E-02-8.34906E-08 2.76218E-08 8.37819E-05
 -1        49-6.48422E-04-1.39233E-14 1.59299E-03-2.62396E-08 2.87228E-08-5.43871E-05
 -1        50-2.44635E-03 1.93109E-16 1.05141E-02-2.01934E-08 2.67085E-08-3.86653E-05
 -1        51-6.50139E-04-1.39233E-14 1.59318E-03-2.62396E-08 2.87229E-08-5.43832E-05
 -1        52-2.44628E-03 1.93109E-16 1.05138E-02-2.01935E-08 2.67085E-08-3.87496E-05
 -1        53-6.25841E-04 1.43461E-14 1.58137E-03-1.13898E-07 3.52316E-08-1.39852E-04
 -1        54-2.36497E-03 2.10125E-14 1.02585E-02-1.06723E-07-1.69182E-08-1.05554E-04
 -1        55-6.27399E-04 1.43461E-14 1.58156E-03-1.13897E-07 3.52316E-08-1.40120E-04
 -1        56-2.36489E-03 2.10125E-14 1.02582E-02-1.06723E-07-1.69181E-08-1.06055E-04
 -1        57-5.85844E-04-8.54162E-15 1.51652E-03-4.76209E-08 6.14680E-08-2.60858E-04
 -1        58-2.24663E-03 1.14551E-14 9.80242E-03-8.19505E-08-2.46584E-08-1.99331E-04
 -1        59-5.88008E-04-8.54162E-15 1.51669E-03-4.76208E-08 6.14681E-08-2.61010E-04
 -1        60-2.24704E-03 1.14551E-14 9.80201E-03-8.19504E-08-2.46584E-08-1.99681E-04
 -1        61-5.13063E-04 1.98102E-14 1.41792E-03-1.17913E-07 6.47014E-08-4.86948E-04
 -1        62-2.01534E-03-3.32828E-16 8.94128E-03-5.10801E-08-8.45009E-08-3.68925E-04
 -1        63-5.14035E-04 1.98102E-14 1.41817E-03-1.17913E-07 6.47014E-08-4.87029E-04
 -1        64-2.01454E-03-3.32828E-16 8.94249E-03-5.10800E-08-8.45010E-08-3.69549E-04
 -1        65-4.42981E-04-5.32009E-15 1.26403E-03 1.68376E-08 1.03994E-07-7.26046E-04
 -1        66-1.64589E-03 4.33747E-14 7.44830E-03 1.08267E-08 1.78106E-07-5.34049E-04
 -1        67-4.44483E-04-5.32009E-15 1.26376E-03 1.68377E-08 1.03994E-07-7.25372E-04
 -1        68-1.64596E-03 4.33747E-14 7.44848E-03 1.08268E-08 1.78106E-07-5.33422E-04
 -1        69-3.20534E-04 2.85744E-14 1.03740E-03-1.85915E-07 2.05143E-08-8.17872E-04
 -1        70-1.11173E-03-1.91706E-14 5.55737E-03 1.03480E-08-5.50816E-08-6.09460E-04
 -1        71-3.21792E-04 2.85744E-14 1.03656E-03-1.85915E-07 2.05145E-08-8.18262E-04
 -1        72-1.10937E-03-1.91706E-14 5.55591E-03 1.03480E-08-5.50816E-08-6.10450E-04
 -1        73-2.06004E-04 2.77730E-14 8.44267E-04-1.14170E-07-3.43877E-08-7.51570E-04
 -1        74-7.32026E-04 3.10083E-14 3.60534E-03-1.67022E-07-6.45410E-08-4.10248E-04
 -1        75-2.07254E-04 2.77730E-14 8.44231E-04-1.14170E-07-3.43877E-08-7.52184E-04
 -1        76-7.32661E-04 3.10083E-14 3.60570E-03-1.67022E-07-6.45413E-08-4.09518E-04
 -1        77-1.24424E-04-8.90333E-15 5.41430E-04-2.57532E-07 1.52316E-08-4.71044E-04
 -1        78 8.24429E-05-2.89830E-14 2.10573E-03 3.13385E-07 3.57241E-09-5.35919E-04
 -1        79-1.24718E-04-8.90333E-15 5.41870E-04-2.57532E-07 1.52313E-08-4.69169E-04
 -1        80 8.92934E-05-2.89830E-14 2.10402E-03 3.13385E-07 3.57213E-09-5.37397E-04
 -1        81 1.62562E-05 1.08185E-13 3.04261E-04 4.78779E-07 3.93295E-08-8.84697E-05
 -1        82-1.15659E-03 4.13904E-13 1.58831E-03-6.36201E-07-3.50094E-07-4.14891E-04
 -1        83 1.31506E-05 1.08185E-13 3.04549E-04 4.78778E-07 3.93310E-08-8.46999E-05
 -1        84-1.16997E-03 4.13904E-13 1.58407E-03-6.36194E-07-3.50089E-07-4.22920E-04
 -1        85-4.90958E-05-3.64385E-15 2.37666E-02 3.26933E-10-1.21265E-14 1.16678E-02
 -1        86-6.09538E-03 1.93098E-14 2.13132E-02 1.64441E-07 4.41403E-08 3.49237E-03
 -1        87-4.91029E-05-3.64385E-15 2.37671E-02 3.27045E-10-1.21260E-14 1.16688E-02
 -1        88-6.09923E-03 1.93098E-14 2.13136E-02 1.64440E-07 4.41403E-08 3.49220E-03
 -1        89-3.33072E-03 7.23759E-15 1.58168E-02 8.86949E-08 7.31919E-08 1.94142E-03
 -1        90-3.33326E-03 7.23759E-15 1.58171E-02 8.86946E-08 7.31920E-08 1.94112E-03
 -1        91-2.41502E-03 6.75506E-14 1.02728E-02 1.90710E-07 9.96907E-08 1.89832E-03
 -1        92-2.41793E-03 6.75506E-14 1.02725E-02 1.90709E-07 9.96907E-08 1.89816E-03
 -1        93-1.37117E-03 6.02452E-14 5.72224E-03 1.98613E-07 1.88253E-08 1.52059E-03
 -1        94-1.37391E-03 6.02452E-14 5.72142E-03 1.98612E-07 1.88253E-08 1.52048E-03
 -1        95-6.43642E-04 8.53353E-14 2.17285E-03 2.35725E-07-3.41207E-08 1.17978E-03
 -1        96-6.47078E-04 8.53353E-14 2.17265E-03 2.35724E-07-3.41207E-08 1.17980E-03
 -1        97-1.01677E-04 4.82647E-14-4.69439E-04 1.88899E-07-1.44771E-08 9.36236E-04
 -1        98-1.04822E-04 4.82647E-14-4.69154E-04 1.88899E-07-1.44772E-08 9.36101E-04
 -1        99 3.16268E-04 3.09193E-14-2.60935E-03 1.64223E-07 1.29183E-08 8.25377E-04
 -1       100 3.13273E-04 3.09193E-14-2.60914E-03 1.64222E-07 1.29184E-08 8.25488E-04
 -1       101 6.69660E-04 1.28024E-13-4.50270E-03 2.78311E-07 1.90218E-08 7.29164E-04
 -1       102 6.66434E-04 1.28024E-13-4.50285E-03 2.78311E-07 1.90219E-08 7.29106E-04
 -1       103 9.65230E-04 7.30008E-14-6.06516E-03 2.20536E-07-1.55731E-08 5.49092E-04
 -1       104 9.62151E-04 7.30008E-14-6.06544E-03 2.20535E-07-1.55734E-08 5.48648E-04
 -1       105 1.14411E-03 1.24777E-15-7.05756E-03 1.12480E-07-2.98949E-08 3.13898E-04
 -1       106 1.14118E-03 1.24777E-15-7.05790E-03 1.12480E-07-2.98949E-08 3.14140E-04
 -1       107 1.18247E-03 1.15561E-13-7.40910E-03 2.61266E-07-7.49057E-08 1.08031E-04
 -1       108 1.17912E-03 1.15561E-13-7.40932E-03 2.61265E-07-7.49055E-08 1.08969E-04
 -1       109 1.14951E-03 1.15293E-13-7.32077E-03 2.65975E-07-7.03741E-08-2.93645E-05
 -1       110 1.14600E-03 1.15293E-13-7.32000E-03 2.65974E-07-7.03744E-08-2.90972E-05
 -1       111 1.11329E-03 2.09413E-14-7.08842E-03 1.52468E-07 4.99087E-08-1.05555E-04
 -1       112 1.11009E-03 2.09413E-14-7.08785E-03 1.52468E-07 4.99087E-08-1.05606E-04
 -1       113 1.07494E-03 1.12740E-13-6.76415E-03 2.78532E-07 2.09283E-08-2.03993E-04
 -1       114 1.07102E-03 1.12740E-13-6.76440E-03 2.78531E-07 2.09283E-08-2.03880E-04
 -1       115 9.89219E-04-4.02087E-15-6.09082E-03 1.10573E-07 6.01752E-09-3.76067E-04
 -1       116 9.86475E-04-4.02087E-15-6.09162E-03 1.10573E-07 6.01751E-09-3.75769E-04
 -1       117 7.59931E-04 1.21845E-13-4.87330E-03 2.61165E-07-1.15468E-07-5.62576E-04
 -1       118 7.56999E-04 1.21845E-13-4.87366E-03 2.61164E-07-1.15468E-07-5.60934E-04
 -1       119 4.70658E-04 4.11394E-14-3.31489E-03 2.19740E-07-5.62172E-08-6.87956E-04
 -1       120 4.65788E-04 4.11394E-14-3.31377E-03 2.19739E-07-5.62175E-08-6.88155E-04
 -1       121 3.20017E-04-1.61718E-14-1.78628E-03 4.10878E-08 6.88784E-08-5.93663E-04
 -1       122 3.18153E-04-1.61718E-14-1.78610E-03 4.10879E-08 6.88784E-08-5.93854E-04
 -1       123-3.31292E-04 1.24513E-13-5.19369E-04 3.62258E-07-2.85371E-08-7.29660E-04
 -1       124-3.38730E-04 1.24513E-13-5.20583E-04 3.62256E-07-2.85370E-08-7.29873E-04
 -1       125 1.18910E-03-6.23688E-14 2.72360E-05-1.17854E-07-1.34128E-07-1.14156E-03
 -1       126 1.19627E-03-6.23688E-14 2.59724E-05-1.17854E-07-1.34129E-07-1.14341E-03
 -3
    1PSTEP                        28           7           3          
  100CL  107 2.70000E-01         126                     1    7           1
 -4  ERROR       1    1
 -5  STR(%)      1    1    0    0
 -1         1 6.34516E+01
 -1         2 6.47561E+01
 -1         3 6.47561E+01
 -1         4 6.34516E+01
 -1         5 6.34516E+01
 -1         6 6.47561E+01
 -1         7 6.47561E+01
 -1         8 6.34516E+01
 -1         9 6.25614E+01
 -1        10 6.25614E+01
 -1        11 6.25614E+01
 -1        12 6.25614E+01
 -1        13 6.25614E+01
 -1        14 6.25614E+01
 -1        15 6.25614E+01
 -1        16 6.25614E+01
 -1        17 5.95755E+01
 -1        18 5.95755E+01
 -1        19 5.95755E+01
 -1        20 5.95755E+01
 -1        21 4.84356E+01
 -1        22 4.84356E+01
 -1        23 4.84356E+01
 -1        24 4.84356E+01
 -1        25 5.69796E+01
 -1        26 3.51277E+01
 -1        27 5.69796E+01
 -1        28 3.51277E+01
 -1        29 7.51990E+01
 -1        30 4.64795E+01
 -1        31 7.51990E+01
 -1        32 4.64795E+01
 -1        33 7.87656E+01
 -1        34 4.95339E+01
 -1        35 7.87656E+01
 -1        36 4.95339E+01
 -1        37 7.87656E+01
 -1        38 5.00288E+01
 -1        39 7.87656E+01
 -1        40 5.00288E+01
 -1        41 7.63204E+01
 -1        42 5.00288E+01
 -1        43 7.63204E+01
 -1        44 5.00288E+01
 -1        45 7.39148E+01
 -1        46 4.93355E+01
 -1        47 7.39148E+01
 -1        48 4.93355E+01
 -1        49 7.43873E+01
 -1        50 4.84666E+01
 -1        51 7.43873E+01
 -1        52 4.84666E+01
 -1        53 7.49627E+01
 -1        54 4.83581E+01
 -1        55 7.49627E+01
 -1        56 4.83581E+01
 -1        57 7.69155E+01
 -1        58 4.85504E+01
 -1        59 7.69155E+01
 -1        60 4.85504E+01
 -1        61 8.09523E+01
 -1        62 4.85504E+01
 -1        63 8.09523E+01
 -1        64 4.85504E+01
 -1        65 8.28393E+01
 -1        66 4.82047E+01
 -1        67 8.28393E+01
 -1        68 4.82047E+01
 -1        69 8.28393E+01
 -1        70 4.63161E+01
 -1        71 8.28393E+01
 -1        72 4.63161E+01
 -1        73 1.03706E+02
 -1        74 4.41458E+01
 -1        75 1.03706E+02
 -1        76 4.41458E+01
 -1        77 1.03706E+02
 -1        78 6.56348E+01
 -1        79 1.03706E+02
 -1        80 6.56348E+01
 -1        81 6.56348E+01
 -1        82 6.56348E+01
 -1        83 6.56348E+01
 -1        84 6.56348E+01
 -1        85 6.47561E+01
 -1        86 6.47561E+01
 -1        87 6.47561E+01
 -1        88 6.47561E+01
 -1        89 6.09873E+01
 -1        90 6.09873E+01
 -1        91 5.92594E+01
 -1        92 5.92594E+01
 -1        93 5.33089E+01
 -1        94 5.33089E+01
 -1        95 3.87469E+01
 -1        96 3.87469E+01
 -1        97 5.69796E+01
 -1        98 5.69796E+01
 -1        99 7.51990E+01
 -1       100 7.51990E+01
 -1       101 7.87656E+01
 -1       102 7.87656E+01
 -1       103 7.87656E+01
 -1       104 7.87656E+01
 -1       105 7.63204E+01
 -1       106 7.63204E+01
 -1       107 7.39148E+01
 -1       108 7.39148E+01
 -1       109 7.43873E+01
 -1       110 7.43873E+01
 -1       111 7.49627E+01
 -1       112 7.49627E+01
 -1       113 7.69155E+01
 -1       114 7.69155E+01
 -1       115 8.09523E+01
 -1       116 8.09523E+01
 -1       117 8.28393E+01
 -1       118 8.28393E+01
 -1       119 8.28393E+01
 -1       120 8.28393E+01
 -1       121 1.03706E+02
 -1       122 1.03706E+02
 -1       123 1.03706E+02
 -1       124 1.03706E+02
 -1       125 4.13284E+01
 -1       126 4.13284E+01
 -3
    1PSTEP                        29           8           3          
  100CL  108 2.80000E-01         126                     1    8           1
 -4  DISP        4    1
 -5  D1          1    2    1    0
 -5  D2          1    2    2    0
 -5  D3          1    2    3    0
 -5  ALL         1    2    0    0    1ALL
 -1         1 0.00000E+00 0.00000E+00 0.00000E+00
 -1         2 0.00000E+00 0.00000E+00 0.00000E+00
 -1         3 8.63554E-04 0.00000E+00-2.47596E-05
 -1         4 1.15660E-03 0.00000E+00-1.26029E-03
 -1         5 0.00000E+00 0.00000E+00 0.00000E+00
 -1         6 0.00000E+00 0.00000E+00 0.00000E+00
 -1         7 8.63555E-04 0.00000E+00-2.47272E-05
 -1         8 1.15655E-03 0.00000E+00-1.26033E-03
 -1         9 2.99012E-03 0.00000E+00-7.70441E-05
 -1        10 3.10422E-03 0.00000E+00-2.28524E-03
 -1        11 2.99014E-03 0.00000E+00-7.70437E-05
 -1        12 3.10435E-03 0.00000E+00-2.28531E-03
 -1        13 5.84167E-03 0.00000E+00-1.57680E-04
 -1        14 5.87600E-03 0.00000E+00-3.02013E-03
 -1        15 5.84169E-03 0.00000E+00-1.57686E-04
 -1        16 5.87607E-03 0.00000E+00-3.02016E-03
 -1        17 9.18171E-03 0.00000E+00-2.58790E-04
 -1        18 9.13572E-03 0.00000E+00-3.52169E-03
 -1        19 9.18172E-03 0.00000E+00-2.58783E-04
 -1        20 9.13582E-03 0.00000E+00-3.52171E-03
 -1        21 1.27663E-02 0.00000E+00-3.66991E-04
 -1        22 1.26637E-02 0.00000E+00-3.81982E-03
 -1        23 1.27663E-02 0.00000E+00-3.67003E-04
 -1        24 1.26638E-02 0.00000E+00-3.81986E-03
 -1        25 1.64139E-02 0.00000E+00-4.69067E-04
 -1        26 1.62729E-02 0.00000E+00-3.94734E-03
 -1        27 1.64140E-02 0.00000E+00-4.69089E-04
 -1        28 1.62730E-02 0.00000E+00-3.94737E-03
 -1        29 1.99990E-02 0.00000E+00-5.55966E-04
 -1        30 1.98336E-02 0.00000E+00-3.92521E-03
 -1        31 1.99991E-02 0.00000E+00-5.55967E-04
 -1        32 1.98337E-02 0.00000E+00-3.92523E-03
 -1        33 2.34083E-02 0.00000E+00-6.21085E-04
 -1        34 2.32275E-02 0.00000E+00-3.75493E-03
 -1        35 2.34084E-02 0.00000E+00-6.21082E-04
 -1        36 2.32277E-02 0.00000E+00-3.75491E-03
 -1        37 2.65024E-02 0.00000E+00-6.55962E-04
 -1        38 2.63153E-02 0.00000E+00-3.43946E-03
 -1        39 2.65024E-02 0.00000E+00-6.55962E-04
 -1        40 2.63154E-02 0.00000E+00-3.43941E-03
 -1        41 2.91605E-02 0.00000E+00-6.56097E-04
 -1        42 2.89779E-02 0.00000E+00-3.00594E-03
 -1        43 2.91606E-02 0.00000E+00-6.56079E-04
 -1        44 2.89780E-02 0.00000E+00-3.00588E-03
 -1        45 3.13132E-02 0.00000E+00-6.24991E-04
 -1        46 3.11442E-02 0.00000E+00-2.49856E-03
 -1        47 3.13132E-02 0.00000E+00-6.24970E-04
 -1        48 3.11443E-02 0.00000E+00-2.49854E-03
 -1        49 3.29425E-02 0.00000E+00-5.70527E-04
 -1        50 3.27908E-02 0.00000E+00-1.96253E-03
 -1        51 3.29425E-02 0.00000E+00-5.70534E-04
 -1        52 3.27909E-02 0.00000E+00-1.96253E-03
 -1        53 3.40811E-02 0.00000E+00-5.01332E-04
 -1        54 3.39452E-02 0.00000E+00-1.42862E-03
 -1        55 3.40811E-02 0.00000E+00-5.01354E-04
 -1        56 3.39453E-02 0.00000E+00-1.42860E-03
 -1        57 3.47562E-02 0.00000E+00-4.25761E-04
 -1        58 3.46353E-02 0.00000E+00-9.12236E-04
 -1        59 3.47562E-02 0.00000E+00-4.25799E-04
 -1        60 3.46354E-02 0.00000E+00-9.12222E-04
 -1        61 3.49848E-02 0.00000E+00-3.52108E-04
 -1        62 3.48805E-02 0.00000E+00-4.33737E-04
 -1        63 3.49848E-02 0.00000E+00-3.52156E-04
 -1        64 3.48806E-02 0.00000E+00-4.33678E-04
 -1        65 3.48055E-02 0.00000E+00-2.89097E-04
 -1        66 3.47225E-02 0.00000E+00-2.48493E-05
 -1        67 3.48054E-02 0.00000E+00-2.89161E-04
 -1        68 3.47225E-02 0.00000E+00-2.49230E-05
 -1        69 3.43010E-02 0.00000E+00-2.39845E-04
 -1        70 3.42412E-02 0.00000E+00 2.92260E-04
 -1        71 3.43011E-02 0.00000E+00-2.39893E-04
 -1        72 3.42412E-02 0.00000E+00 2.92256E-04
 -1        73 3.35778E-02 0.00000E+00-2.02223E-04
 -1        74 3.35352E-02 0.00000E+00 5.08383E-04
 -1        75 3.35778E-02 0.00000E+00-2.02231E-04
 -1        76 3.35352E-02 0.00000E+00 5.08462E-04
 -1        77 3.27338E-02 0.00000E+00-1.76990E-04
 -1        78 3.27291E-02 0.00000E+00 6.17480E-04
 -1        79 3.27338E-02 0.00000E+00-1.76990E-04
 -1        80 3.27289E-02 0.00000E+00 6.17412E-04
 -1        81 3.18925E-02 0.00000E+00-1.72828E-04
 -1        82 3.18272E-02 0.00000E+00 6.83042E-04
 -1        83 3.18924E-02 0.00000E+00-1.72829E-04
 -1        84 3.18276E-02 0.00000E+00 6.83157E-04
 -1        85 0.00000E+00 0.00000E+00 0.00000E+00
 -1        86 1.18841E-03 0.00000E+00 1.18864E-03
 -1        87 0.00000E+00 0.00000E+00 0.00000E+00
 -1        88 1.18822E-03 0.00000E+00 1.18862E-03
 -1        89 3.20664E-03 0.00000E+00 2.10995E-03
 -1        90 3.20651E-03 0.00000E+00 2.10992E-03
 -1        91 6.04800E-03 0.00000E+00 2.68882E-03
 -1        92 6.04784E-03 0.00000E+00 2.68878E-03
 -1        93 9.36337E-03 0.00000E+00 2.99681E-03
 -1        94 9.36319E-03 0.00000E+00 2.99682E-03
 -1        95 1.29252E-02 0.00000E+00 3.08602E-03
 -1        96 1.29250E-02 0.00000E+00 3.08605E-03
 -1        97 1.65481E-02 0.00000E+00 3.01449E-03
 -1        98 1.65479E-02 0.00000E+00 3.01451E-03
 -1        99 2.01023E-02 0.00000E+00 2.82219E-03
 -1       100 2.01022E-02 0.00000E+00 2.82222E-03
 -1       101 2.34739E-02 0.00000E+00 2.52549E-03
 -1       102 2.34737E-02 0.00000E+00 2.52551E-03
 -1       103 2.65298E-02 0.00000E+00 2.14210E-03
 -1       104 2.65296E-02 0.00000E+00 2.14211E-03
 -1       105 2.91556E-02 0.00000E+00 1.70634E-03
 -1       106 2.91555E-02 0.00000E+00 1.70635E-03
 -1       107 3.12850E-02 0.00000E+00 1.25757E-03
 -1       108 3.12848E-02 0.00000E+00 1.25762E-03
 -1       109 3.29008E-02 0.00000E+00 8.27218E-04
 -1       110 3.29006E-02 0.00000E+00 8.27296E-04
 -1       111 3.40326E-02 0.00000E+00 4.27922E-04
 -1       112 3.40325E-02 0.00000E+00 4.27924E-04
 -1       113 3.47050E-02 0.00000E+00 5.91491E-05
 -1       114 3.47049E-02 0.00000E+00 5.91328E-05
 -1       115 3.49377E-02 0.00000E+00-2.75133E-04
 -1       116 3.49376E-02 0.00000E+00-2.75128E-04
 -1       117 3.47677E-02 0.00000E+00-5.59075E-04
 -1       118 3.47676E-02 0.00000E+00-5.58991E-04
 -1       119 3.42784E-02 0.00000E+00-7.73829E-04
 -1       120 3.42783E-02 0.00000E+00-7.73773E-04
 -1       121 3.35690E-02 0.00000E+00-9.08162E-04
 -1       122 3.35690E-02 0.00000E+00-9.08223E-04
 -1       123 3.27554E-02 0.00000E+00-9.70281E-04
 -1       124 3.27552E-02 0.00000E+00-9.70222E-04
 -1       125 3.18452E-02 0.00000E+00-9.79016E-04
 -1       126 3.18454E-02 0.00000E+00-9.78868E-04
 -3
    1PSTEP                        30           8           3          
  100CL  108 2.80000E-01         126                     1    8           1
 -4  STRESS      6    1
 -5  SXX         1    4    1    1
 -5  SYY         1    4    2    2
 -5  SZZ         1    4    3    3
 -5  SXY         1    4    1    2
 -5  SYZ         1    4    2    3
 -5  SZX         1    4    3    1
 -1         1-5.68955E+03-5.82804E+03-1.30455E+04-2.52603E-05-8.29954E-05 3.27723E+03
 -1         2-1.13287E+01-7.98408E+01-3.10117E+02 6.77332E-05-1.11974E-07 2.65191E+03
 -1         3 4.63892E+01-6.47762E+01-2.81222E+02 7.16003E-04 1.66103E-02 8.26519E+02
 -1         4-1.75658E+03-3.72982E+03-1.03041E+04-2.28750E-02-1.88095E-02 8.26005E+02
 -1         5-5.68975E+03-5.82822E+03-1.30459E+04-2.52735E-05-8.30021E-05 3.27709E+03
 -1         6-1.11729E+01-7.96912E+01-3.09769E+02 6.77336E-05-1.13643E-07 2.65193E+03
 -1         7 4.71512E+01-6.44379E+01-2.80882E+02 7.15998E-04 1.66103E-02 8.26540E+02
 -1         8-1.75720E+03-3.73018E+03-1.03047E+04-2.28750E-02-1.88095E-02 8.25980E+02
 -1         9 6.05743E+01-2.91197E+01-1.83910E+02 1.34971E-02 2.05223E-04 8.90423E+02
 -1        10-1.99088E+03-3.05021E+03-7.95228E+03 6.42867E-02-3.46563E-02 3.18060E+02
 -1        11 6.18520E+01-2.86179E+01-1.83519E+02 1.34972E-02 2.05220E-04 8.90364E+02
 -1        12-1.98973E+03-3.04969E+03-7.95172E+03 6.42869E-02-3.46564E-02 3.18012E+02
 -1        13 7.88472E+01 4.87077E+00-6.96102E+01 7.08205E-03-2.72072E-03 7.38790E+02
 -1        14-1.11643E+03-1.89304E+03-5.10040E+03 3.70275E-02-1.34365E-02 3.47396E+02
 -1        15 8.01018E+01 5.41820E+00-6.90451E+01 7.08209E-03-2.72072E-03 7.38755E+02
 -1        16-1.11567E+03-1.89265E+03-5.09986E+03 3.70276E-02-1.34366E-02 3.47293E+02
 -1        17 7.96398E+01 3.67569E+01 4.22771E+01 1.51187E-03 3.37645E-03 6.24991E+02
 -1        18-6.03840E+02-1.03167E+03-2.80449E+03 5.26230E-02-1.09741E-02 3.26667E+02
 -1        19 8.11245E+01 3.73880E+01 4.28929E+01 1.51188E-03 3.37645E-03 6.24921E+02
 -1        20-6.02748E+02-1.03121E+03-2.80403E+03 5.26233E-02-1.09741E-02 3.26634E+02
 -1        21 6.93831E+01 6.64172E+01 1.53999E+02 8.01563E-03-6.14964E-03 5.06766E+02
 -1        22-1.62011E+02-3.15790E+02-8.84473E+02 6.12337E-02-1.65545E-02 3.30541E+02
 -1        23 7.09648E+01 6.70641E+01 1.54572E+02 8.01569E-03-6.14965E-03 5.06695E+02
 -1        24-1.60901E+02-3.15322E+02-8.84024E+02 6.12340E-02-1.65546E-02 3.30483E+02
 -1        25 5.36622E+01 9.31012E+01 2.58778E+02 1.97778E-02-1.10061E-02 4.25591E+02
 -1        26 1.82963E+02 2.58007E+02 6.82108E+02 6.15237E-02-1.57189E-02 3.47420E+02
 -1        27 5.50431E+01 9.37118E+01 2.59433E+02 1.97779E-02-1.10061E-02 4.25531E+02
 -1        28 1.83872E+02 2.58417E+02 6.82566E+02 6.15239E-02-1.57190E-02 3.47381E+02
 -1        29 4.89409E+01 1.20166E+02 3.52389E+02 2.25502E-02-5.94489E-04 3.91721E+02
 -1        30 4.90697E+02 7.61687E+02 2.06634E+03 6.25487E-02-9.41055E-03 3.89566E+02
 -1        31 5.03503E+01 1.20806E+02 3.53113E+02 2.25503E-02-5.94507E-04 3.91622E+02
 -1        32 4.91646E+02 7.62158E+02 2.06697E+03 6.25490E-02-9.41059E-03 3.89515E+02
 -1        33 4.32368E+01 1.45524E+02 4.40643E+02 1.67276E-02 1.47254E-03 3.56674E+02
 -1        34 7.62190E+02 1.22327E+03 3.35709E+03 6.54266E-02 8.53861E-03 4.16165E+02
 -1        35 4.47889E+01 1.46189E+02 4.41309E+02 1.67277E-02 1.47253E-03 3.56588E+02
 -1        36 7.63346E+02 1.22385E+03 3.35789E+03 6.54269E-02 8.53862E-03 4.16145E+02
 -1        37 2.48885E+01 1.67866E+02 5.31185E+02 2.49634E-03-3.98278E-04 2.77291E+02
 -1        38 9.67984E+02 1.60313E+03 4.44524E+03 4.54735E-02 2.64683E-02 3.84692E+02
 -1        39 2.63228E+01 1.68496E+02 5.31852E+02 2.49636E-03-3.98275E-04 2.77308E+02
 -1        40 9.68932E+02 1.60357E+03 4.44578E+03 4.54737E-02 2.64684E-02 3.84774E+02
 -1        41 6.40440E+00 1.87391E+02 6.12742E+02 5.79001E-03 8.95131E-03 1.65905E+02
 -1        42 1.09531E+03 1.85192E+03 5.16936E+03 4.29165E-02 2.80163E-02 2.99191E+02
 -1        43 7.66798E+00 1.87957E+02 6.13371E+02 5.79005E-03 8.95133E-03 1.65989E+02
 -1        44 1.09600E+03 1.85217E+03 5.16949E+03 4.29167E-02 2.80163E-02 2.99362E+02
 -1        45 4.80387E-01 2.03341E+02 6.70771E+02 1.56094E-02 1.06972E-02 5.19948E+01
 -1        46 1.15060E+03 1.95810E+03 5.47808E+03 6.83441E-02 9.12291E-03 1.84753E+02
 -1        47 1.90912E+00 2.03922E+02 6.71285E+02 1.56095E-02 1.06972E-02 5.19200E+01
 -1        48 1.15158E+03 1.95844E+03 5.47825E+03 6.83445E-02 9.12291E-03 1.84740E+02
 -1        49 4.90232E-01 2.12163E+02 6.99641E+02 7.07212E-03-3.36366E-03-2.44076E+01
 -1        50 1.14352E+03 1.94925E+03 5.45400E+03 4.71580E-02-3.55972E-04 8.67569E+01
 -1        51 1.86391E+00 2.12697E+02 7.00049E+02 7.07217E-03-3.36367E-03-2.44966E+01
 -1        52 1.14434E+03 1.94960E+03 5.45434E+03 4.71582E-02-3.55982E-04 8.67117E+01
 -1        53 1.54851E+00 2.12139E+02 6.99082E+02 3.09355E-02-1.12469E-02-5.98983E+01
 -1        54 1.09884E+03 1.87631E+03 5.24817E+03 4.98416E-02 8.70702E-03 2.27336E+01
 -1        55 2.53446E+00 2.12517E+02 6.99361E+02 3.09356E-02-1.12469E-02-5.98681E+01
 -1        56 1.09927E+03 1.87651E+03 5.24841E+03 4.98417E-02 8.70706E-03 2.28581E+01
 -1        57 1.13540E+01 2.05915E+02 6.69881E+02 1.21588E-02-1.97251E-02-1.01325E+02
 -1        58 1.03545E+03 1.75997E+03 4.91291E+03 4.88026E-02 6.90920E-03-4.01325E+01
 -1        59 1.26725E+01 2.06443E+02 6.70326E+02 1.21589E-02-1.97251E-02-1.01293E+02
 -1        60 1.03630E+03 1.76039E+03 4.91347E+03 4.88027E-02 6.90925E-03-4.00119E+01
 -1        61 1.59486E+01 1.85593E+02 5.99117E+02 2.83638E-02-2.48803E-02-1.68215E+02
 -1        62 9.31268E+02 1.56785E+03 4.36013E+03 3.75272E-02 3.05979E-02-1.16313E+02
 -1        63 1.67692E+01 1.85909E+02 5.99357E+02 2.83639E-02-2.48803E-02-1.68197E+02
 -1        64 9.31259E+02 1.56774E+03 4.35973E+03 3.75273E-02 3.05979E-02-1.16118E+02
 -1        65 3.67795E+01 1.64576E+02 5.09649E+02-8.87409E-03-3.27326E-02-2.31848E+02
 -1        66 7.99277E+02 1.30054E+03 3.58045E+03 2.22354E-03-3.84015E-02-1.80377E+02
 -1        67 3.73196E+01 1.64807E+02 5.09879E+02-8.87407E-03-3.27326E-02-2.32068E+02
 -1        68 7.99366E+02 1.30049E+03 3.58020E+03 2.22356E-03-3.84014E-02-1.80534E+02
 -1        69 5.62739E+01 1.45582E+02 4.28081E+02 3.64437E-02-2.46352E-02-2.51147E+02
 -1        70 6.38879E+02 9.83625E+02 2.66527E+03-3.24839E-03-2.01458E-03-2.02361E+02
 -1        71 5.71574E+01 1.46030E+02 4.28700E+02 3.64438E-02-2.46352E-02-2.51186E+02
 -1        72 6.38395E+02 9.83621E+02 2.66574E+03-3.24841E-03-2.01460E-03-2.02122E+02
 -1        73 5.30886E+01 1.18590E+02 3.42323E+02 9.09393E-03-4.20791E-03-2.34368E+02
 -1        74 3.76408E+02 6.03186E+02 1.64456E+03 3.76416E-02 4.03941E-02-1.49930E+02
 -1        75 5.37695E+01 1.18947E+02 3.42832E+02 9.09396E-03-4.20789E-03-2.34144E+02
 -1        76 3.76880E+02 6.03306E+02 1.64449E+03 3.76415E-02 4.03940E-02-1.49938E+02
 -1        77 3.15283E+01 6.89218E+01 1.98069E+02 3.97424E-02-2.72919E-04-1.51506E+02
 -1        78 4.60309E+02 4.43885E+02 1.02338E+03-9.65978E-02-3.50128E-02-1.88590E+02
 -1        79 3.17335E+01 6.90147E+01 1.98178E+02 3.97425E-02-2.72920E-04-1.51928E+02
 -1        80 4.57495E+02 4.42727E+02 1.02232E+03-9.65978E-02-3.50131E-02-1.88296E+02
 -1        81 3.11370E+01 4.21006E+01 1.10114E+02-6.60320E-02-5.58804E-04-3.23786E+01
 -1        82-2.78034E+02 7.29320E+01 5.22898E+02 2.09156E-01 5.89992E-02-1.48555E+02
 -1        83 3.22867E+01 4.25963E+01 1.10605E+02-6.60324E-02-5.59112E-04-3.30587E+01
 -1        84-2.71529E+02 7.62137E+01 5.27327E+02 2.09160E-01 5.90019E-02-1.46346E+02
 -1        85 5.63914E+03 5.48556E+03 1.32912E+04-3.12632E-04-3.85146E-04 3.93885E+03
 -1        86 1.75336E+03 3.56555E+03 1.04804E+04-9.59644E-02-1.62331E-02 1.35781E+03
 -1        87 5.63894E+03 5.48541E+03 1.32908E+04-3.12481E-04-3.85125E-04 3.93824E+03
 -1        88 1.75526E+03 3.56632E+03 1.04811E+04-9.59652E-02-1.62331E-02 1.35779E+03
 -1        89 2.00483E+03 2.95331E+03 8.05599E+03-6.55499E-02-1.53912E-02 9.06816E+02
 -1        90 2.00643E+03 2.95397E+03 8.05662E+03-6.55504E-02-1.53913E-02 9.06935E+02
 -1        91 1.22741E+03 1.90312E+03 5.21334E+03-8.26005E-02-2.03578E-02 8.45051E+02
 -1        92 1.22933E+03 1.90399E+03 5.21432E+03-8.26012E-02-2.03579E-02 8.45058E+02
 -1        93 7.26532E+02 1.11142E+03 3.01493E+03-9.01075E-02 4.71428E-03 6.47072E+02
 -1        94 7.28585E+02 1.11239E+03 3.01611E+03-9.01083E-02 4.71434E-03 6.47005E+02
 -1        95 2.72382E+02 4.53318E+02 1.24840E+03-9.37706E-02 1.47459E-02 4.66433E+02
 -1        96 2.74567E+02 4.54277E+02 1.24941E+03-9.37715E-02 1.47460E-02 4.66342E+02
 -1        97-1.02940E+02-7.19283E+01-1.34214E+02-6.61493E-02 1.08953E-02 3.22840E+02
 -1        98-1.01111E+02-7.11396E+01-1.33417E+02-6.61499E-02 1.08953E-02 3.22758E+02
 -1        99-4.18696E+02-5.22688E+02-1.31700E+03-6.62228E-02 1.33063E-02 2.29571E+02
 -1       100-4.16846E+02-5.21894E+02-1.31622E+03-6.62234E-02 1.33064E-02 2.29400E+02
 -1       101-7.01317E+02-9.35749E+02-2.39944E+03-8.38818E-02 8.34387E-03 1.51472E+02
 -1       102-6.99259E+02-9.34889E+02-2.39864E+03-8.38826E-02 8.34396E-03 1.51323E+02
 -1       103-9.48152E+02-1.28020E+03-3.28562E+03-8.94776E-02 2.41695E-03 6.44684E+01
 -1       104-9.46205E+02-1.27936E+03-3.28479E+03-8.94784E-02 2.41697E-03 6.44542E+01
 -1       105-1.11436E+03-1.49776E+03-3.83303E+03-7.27357E-02 7.71416E-03-1.86113E+01
 -1       106-1.11256E+03-1.49692E+03-3.83203E+03-7.27362E-02 7.71416E-03-1.85747E+01
 -1       107-1.17670E+03-1.57168E+03-4.01312E+03-7.27561E-02 2.89212E-02-8.39218E+01
 -1       108-1.17468E+03-1.57072E+03-4.01197E+03-7.27568E-02 2.89214E-02-8.41070E+01
 -1       109-1.16647E+03-1.54419E+03-3.93451E+03-9.24138E-02 3.93113E-02-1.11208E+02
 -1       110-1.16448E+03-1.54339E+03-3.93387E+03-9.24147E-02 3.93115E-02-1.11416E+02
 -1       111-1.11941E+03-1.47162E+03-3.74440E+03-5.05718E-02 1.24205E-03-1.06577E+02
 -1       112-1.11789E+03-1.47109E+03-3.74415E+03-5.05722E-02 1.24206E-03-1.06635E+02
 -1       113-1.03447E+03-1.36598E+03-3.48258E+03-8.29077E-02-8.11756E-03-1.10081E+02
 -1       114-1.03245E+03-1.36511E+03-3.48170E+03-8.29085E-02-8.11754E-03-1.10140E+02
 -1       115-9.15457E+02-1.20892E+03-3.08533E+03-4.58388E-02 2.68089E-03-1.40353E+02
 -1       116-9.13654E+02-1.20801E+03-3.08412E+03-4.58391E-02 2.68092E-03-1.40419E+02
 -1       117-7.26533E+02-9.68055E+02-2.48134E+03-4.98256E-02 4.26715E-02-1.76878E+02
 -1       118-7.25552E+02-9.67569E+02-2.48071E+03-4.98259E-02 4.26717E-02-1.77413E+02
 -1       119-5.09476E+02-6.71690E+02-1.72005E+03-7.50118E-02 2.86242E-02-1.93221E+02
 -1       120-5.07474E+02-6.71022E+02-1.71984E+03-7.50125E-02 2.86243E-02-1.93430E+02
 -1       121-2.73099E+02-3.63104E+02-9.34413E+02-1.65412E-02-3.10455E-02-1.65572E+02
 -1       122-2.72539E+02-3.62859E+02-9.34150E+02-1.65410E-02-3.10456E-02-1.65526E+02
 -1       123-2.87339E+02-2.00176E+02-3.78745E+02-1.13527E-01 3.04380E-02-2.10047E+02
 -1       124-2.83669E+02-1.98328E+02-3.76266E+02-1.13529E-01 3.04382E-02-2.09867E+02
 -1       125 5.89530E+02 2.46096E+02 2.32931E+02 1.02451E-01 7.55650E-02-3.18210E+02
 -1       126 5.86299E+02 2.44943E+02 2.32305E+02 1.02451E-01 7.55653E-02-3.17387E+02
 -3
    1PSTEP                        31           8           3          
  100CL  108 2.80000E-01         126                     1    8           1
 -4  TOSTRAIN    6    1
 -5  EXX         1    4    1    1
 -5  EYY         1    4    2    2
 -5  EZZ         1    4    3    3
 -5  EXY         1    4    1    2
 -5  EYZ         1    4    2    3
 -5  EZX         1    4    3    1
 -1         1-5.38492E-05-2.06167E-15-2.46738E-02-1.88511E-10-1.21255E-13 1.15657E-02
 -1         2-5.31694E-05 2.60437E-15-3.99083E-04 2.22265E-10 2.51627E-13 8.63535E-03
 -1         3-4.18276E-05-1.42066E-14-2.86031E-04 4.44684E-10 5.40007E-08 2.71044E-03
 -1         4 6.13995E-03-8.26015E-16-2.21181E-02-7.25261E-08-6.45887E-08 3.53896E-03
 -1         5-5.38541E-05-2.06167E-15-2.46745E-02-1.88537E-10-1.21255E-13 1.15653E-02
 -1         6-5.31673E-05 2.60437E-15-3.98433E-04 2.22266E-10 2.51626E-13 8.63536E-03
 -1         7-4.04041E-05-1.42066E-14-2.86016E-04 4.44677E-10 5.40006E-08 2.71055E-03
 -1         8 6.13908E-03-8.26015E-16-2.21188E-02-7.25260E-08-6.45888E-08 3.53890E-03
 -1         9-7.56786E-05-1.41970E-14-8.63101E-05 4.35183E-08 2.65437E-09 2.91821E-03
 -1        10 3.23624E-03 8.69562E-14-1.63149E-02 2.14462E-07-1.05730E-07 1.95735E-03
 -1        11-7.31336E-05-1.41970E-14-8.66832E-05 4.35184E-08 2.65437E-09 2.91814E-03
 -1        12 3.23829E-03 8.69562E-14-1.63148E-02 2.14462E-07-1.05730E-07 1.95729E-03
 -1        13-9.60382E-05-1.51407E-14 1.02897E-04 2.33567E-08-7.53163E-09 2.41178E-03
 -1        14 2.31534E-03 2.71546E-14-1.04642E-02 1.22901E-07-3.71336E-08 1.90753E-03
 -1        15-9.37191E-05-1.51407E-14 1.02945E-04 2.33567E-08-7.53164E-09 2.41179E-03
 -1        16 2.31653E-03 2.71546E-14-1.04637E-02 1.22901E-07-3.71336E-08 1.90722E-03
 -1        17-1.51870E-04-1.96543E-14 3.06136E-04 4.02884E-09 1.12884E-08 2.01988E-03
 -1        18 1.20639E-03 5.06474E-14-5.65893E-03 1.73144E-07-2.46309E-08 1.53926E-03
 -1        19-1.49072E-04-1.96543E-14 3.06071E-04 4.02885E-09 1.12884E-08 2.01983E-03
 -1        20 1.20842E-03 5.06474E-14-5.65896E-03 1.73144E-07-2.46309E-08 1.53929E-03
 -1        21-2.27350E-04-2.24680E-14 5.14192E-04 2.73803E-08-1.81174E-08 1.60991E-03
 -1        22 3.34472E-04 7.46669E-14-1.69931E-03 2.02384E-07-4.00289E-08 1.23140E-03
 -1        23-2.24291E-04-2.24680E-14 5.13937E-04 2.73804E-08-1.81174E-08 1.60990E-03
 -1        24 3.36572E-04 7.46669E-14-1.69938E-03 2.02385E-07-4.00289E-08 1.23136E-03
 -1        25-3.24457E-04-6.53132E-15 7.27603E-04 6.67144E-08-3.11839E-08 1.32081E-03
 -1        26-3.96996E-04 7.91006E-14 1.51791E-03 2.03072E-07-3.69716E-08 1.00205E-03
 -1        27-3.21936E-04-6.53132E-15 7.27731E-04 6.67146E-08-3.11839E-08 1.32077E-03
 -1        28-3.95360E-04 7.91006E-14 1.51806E-03 2.03072E-07-3.69716E-08 1.00203E-03
 -1        29-4.08314E-04-6.60650E-15 9.27451E-04 7.33149E-08 2.98986E-09 1.19210E-03
 -1        30-1.03438E-03 7.82276E-14 4.34549E-03 2.04821E-07-1.67168E-08 9.00589E-04
 -1        31-4.05777E-04-6.60650E-15 9.27690E-04 7.33151E-08 2.98984E-09 1.19193E-03
 -1        32-1.03281E-03 7.82276E-14 4.34597E-03 2.04821E-07-1.67168E-08 9.00493E-04
 -1        33-4.90815E-04-1.64821E-14 1.11723E-03 5.40649E-08 8.16806E-09 1.06598E-03
 -1        34-1.64806E-03 8.18554E-14 6.97256E-03 2.10262E-07 4.06667E-08 8.00837E-04
 -1        35-4.87909E-04-1.64821E-14 1.11721E-03 5.40651E-08 8.16803E-09 1.06587E-03
 -1        36-1.64618E-03 8.18554E-14 6.97324E-03 2.10263E-07 4.06666E-08 8.00844E-04
 -1        37-5.88530E-04-1.96551E-14 1.30865E-03 8.31430E-09-7.59951E-10 8.01325E-04
 -1        38-2.19011E-03 4.78063E-14 9.17562E-03 1.42534E-07 9.31042E-08 6.00654E-04
 -1        39-5.85929E-04-1.96551E-14 1.30878E-03 8.31432E-09-7.59942E-10 8.01518E-04
 -1        40-2.18850E-03 4.78063E-14 9.17597E-03 1.42535E-07 9.31042E-08 6.00988E-04
 -1        41-6.70459E-04-1.15940E-14 1.47274E-03 1.75425E-08 3.00143E-08 4.42553E-04
 -1        42-2.54905E-03 4.71312E-14 1.06246E-02 1.34837E-07 9.63406E-08 3.36742E-04
 -1        43-6.68224E-04-1.15940E-14 1.47296E-03 1.75426E-08 3.00143E-08 4.42920E-04
 -1        44-2.54765E-03 4.71312E-14 1.06243E-02 1.34838E-07 9.63407E-08 3.37369E-04
 -1        45-7.06783E-04-1.20532E-14 1.57718E-03 4.95783E-08 3.65192E-08 8.65512E-05
 -1        46-2.67949E-03 8.82727E-14 1.12210E-02 2.20598E-07 3.74183E-08 6.88178E-05
 -1        47-7.04017E-04-1.20532E-14 1.57694E-03 4.95785E-08 3.65191E-08 8.64195E-05
 -1        48-2.67743E-03 8.82727E-14 1.12205E-02 2.20599E-07 3.74183E-08 6.88734E-05
 -1        49-7.15963E-04-2.34266E-14 1.62487E-03 2.34646E-08-1.03654E-08-1.41841E-04
 -1        50-2.65032E-03 4.06080E-14 1.11533E-02 1.53074E-07 3.05902E-09-1.06625E-04
 -1        51-7.13219E-04-2.34266E-14 1.62445E-03 2.34647E-08-1.03654E-08-1.42041E-04
 -1        52-2.64877E-03 4.06080E-14 1.11532E-02 1.53075E-07 3.05898E-09-1.06723E-04
 -1        53-7.07242E-04 8.13706E-15 1.61696E-03 1.01333E-07-3.45573E-08-2.35605E-04
 -1        54-2.54892E-03 5.16921E-14 1.07319E-02 1.61219E-07 3.10014E-08-1.72412E-04
 -1        55-7.05285E-04 8.13706E-15 1.61664E-03 1.01333E-07-3.45572E-08-2.35462E-04
 -1        56-2.54819E-03 5.16921E-14 1.07320E-02 1.61220E-07 3.10014E-08-1.72002E-04
 -1        57-6.54068E-04-9.31877E-15 1.53808E-03 4.02536E-08-6.35466E-08-3.48736E-04
 -1        58-2.37300E-03 4.36461E-14 1.00458E-02 1.58230E-07 2.38300E-08-2.47605E-04
 -1        59-6.51501E-04-9.31877E-15 1.53781E-03 4.02537E-08-6.35466E-08-3.48601E-04
 -1        60-2.37158E-03 4.36461E-14 1.00462E-02 1.58231E-07 2.38299E-08-2.47199E-04
 -1        61-5.73536E-04 1.17857E-14 1.37120E-03 9.23262E-08-8.05230E-08-5.47976E-04
 -1        62-2.08593E-03 2.80868E-14 8.91702E-03 1.21727E-07 9.86774E-08-3.88697E-04
 -1        63-5.71910E-04 1.17857E-14 1.37095E-03 9.23263E-08-8.05230E-08-5.47913E-04
 -1        64-2.08558E-03 2.80868E-14 8.91615E-03 1.21727E-07 9.86772E-08-3.88071E-04
 -1        65-4.39927E-04 7.10014E-15 1.14869E-03-2.95231E-08-1.06271E-07-7.43040E-04
 -1        66-1.64725E-03 1.91238E-14 7.30901E-03 6.43787E-09-1.23699E-07-5.29503E-04
 -1        67-4.38922E-04 7.10014E-15 1.14869E-03-2.95230E-08-1.06271E-07-7.43752E-04
 -1        68-1.64682E-03 1.91238E-14 7.30838E-03 6.43784E-09-1.23699E-07-5.30002E-04
 -1        69-3.16600E-04 8.54378E-15 9.45136E-04 1.17499E-07-8.12357E-08-8.00956E-04
 -1        70-1.14018E-03-1.29333E-14 5.41819E-03-1.06604E-08-6.26773E-09-5.80039E-04
 -1        71-3.15206E-04 8.54378E-15 9.45692E-04 1.17500E-07-8.12356E-08-8.01085E-04
 -1        72-1.14171E-03-1.29333E-14 5.41970E-03-1.06605E-08-6.26775E-09-5.79233E-04
 -1        73-2.38506E-04 1.60589E-15 7.51617E-04 2.93611E-08-1.40156E-08-7.46421E-04
 -1        74-7.51729E-04 1.78170E-14 3.37212E-03 1.24227E-07 1.28992E-07-4.25012E-04
 -1        75-2.37429E-04 1.60589E-15 7.52088E-04 2.93611E-08-1.40156E-08-7.45698E-04
 -1        76-7.50591E-04 1.78170E-14 3.37151E-03 1.24227E-07 1.28992E-07-4.25069E-04
 -1        77-1.37427E-04-1.63929E-14 4.35761E-04 1.29117E-07-2.97583E-09-4.83038E-04
 -1        78 3.26448E-05-6.64784E-15 1.89420E-03-3.15764E-07-1.08497E-07-5.80421E-04
 -1        79-1.37118E-04-1.63929E-14 4.35856E-04 1.29117E-07-2.97570E-09-4.84409E-04
 -1        80 2.73065E-05-6.64784E-15 1.89451E-03-3.15764E-07-1.08498E-07-5.79376E-04
 -1        81-4.12475E-05-6.40553E-14 2.24553E-04-2.14605E-07 1.72917E-09-1.00166E-04
 -1        82-1.15886E-03 4.64893E-13 1.47450E-03 6.83543E-07 1.80011E-07-4.37285E-04
 -1        83-3.91703E-05-6.40553E-14 2.24611E-04-2.14605E-07 1.72819E-09-1.02409E-04
 -1        84-1.14808E-03 4.64893E-13 1.47796E-03 6.83548E-07 1.80017E-07-4.30222E-04
 -1        85-5.24896E-05-2.72975E-14 2.42848E-02-5.31753E-10-1.84883E-13 1.18839E-02
 -1        86-6.22361E-03 1.48649E-13 2.18315E-02-3.09777E-07-5.88228E-08 3.53882E-03
 -1        87-5.24805E-05-2.72975E-14 2.42841E-02-5.31547E-10-1.84879E-13 1.18820E-02
 -1        88-6.21989E-03 1.48649E-13 2.18311E-02-3.09779E-07-5.88225E-08 3.53887E-03
 -1        89-3.38760E-03 7.04749E-14 1.63112E-02-2.10001E-07-5.83787E-08 1.99457E-03
 -1        90-3.38456E-03 7.04749E-14 1.63111E-02-2.10002E-07-5.83787E-08 1.99507E-03
 -1        91-2.50741E-03 1.21307E-13 1.08078E-02-2.63715E-07-8.03119E-08 1.93910E-03
 -1        92-2.50397E-03 1.21307E-13 1.08082E-02-2.63716E-07-8.03118E-08 1.93929E-03
 -1        93-1.51013E-03 1.41709E-13 6.34658E-03-2.93086E-07-3.77543E-09 1.57565E-03
 -1        94-1.50656E-03 1.41709E-13 6.34724E-03-2.93087E-07-3.77537E-09 1.57561E-03
 -1        95-7.89171E-04 1.51342E-13 2.75847E-03-3.07405E-07 2.66712E-08 1.27297E-03
 -1        96-7.85154E-04 1.51342E-13 2.75862E-03-3.07406E-07 2.66710E-08 1.27293E-03
 -1        97-2.51918E-04 6.60726E-14-5.85572E-05-2.17040E-07 2.03314E-08 1.04560E-03
 -1        98-2.48512E-04 6.60726E-14-5.85472E-05-2.17041E-07 2.03313E-08 1.04556E-03
 -1        99 2.17757E-04 6.75542E-14-2.47848E-03-2.17827E-07 2.86694E-08 9.41238E-04
 -1       100 2.21251E-04 6.75542E-14-2.47855E-03-2.17828E-07 2.86695E-08 9.40913E-04
 -1       101 6.66429E-04 1.13731E-13-4.70968E-03-2.74008E-07 9.95354E-09 8.43368E-04
 -1       102 6.70367E-04 1.13731E-13-4.70992E-03-2.74009E-07 9.95366E-09 8.43137E-04
 -1       103 1.01305E-03 1.38815E-13-6.53964E-03-2.91074E-07-8.44666E-09 6.41411E-04
 -1       104 1.01664E-03 1.38815E-13-6.53964E-03-2.91075E-07-8.44670E-09 6.41567E-04
 -1       105 1.20814E-03 9.00936E-14-7.67020E-03-2.37589E-07 1.41185E-08 3.62833E-04
 -1       106 1.21120E-03 9.00936E-14-7.66967E-03-2.37590E-07 1.41184E-08 3.63078E-04
 -1       107 1.26592E-03 9.98257E-14-8.04563E-03-2.40097E-07 8.58537E-08 7.63625E-05
 -1       108 1.26940E-03 9.98257E-14-8.04503E-03-2.40098E-07 8.58538E-08 7.58607E-05
 -1       109 1.21840E-03 1.66498E-13-7.88020E-03-3.04132E-07 1.20433E-07-1.11523E-04
 -1       110 1.22233E-03 1.66498E-13-7.88074E-03-3.04134E-07 1.20433E-07-1.12083E-04
 -1       111 1.13443E-03 2.28469E-14-7.48463E-03-1.64530E-07 9.45474E-10-1.91094E-04
 -1       112 1.13762E-03 2.28469E-14-7.48555E-03-1.64530E-07 9.45448E-10-1.91204E-04
 -1       113 1.06486E-03 1.10025E-13-6.96108E-03-2.69474E-07-2.93545E-08-2.85242E-04
 -1       114 1.06858E-03 1.10025E-13-6.96106E-03-2.69475E-07-2.93545E-08-2.85397E-04
 -1       115 9.38861E-04 1.81275E-14-6.15936E-03-1.49072E-07 8.46337E-09-4.51508E-04
 -1       116 9.41760E-04 1.81275E-14-6.15836E-03-1.49072E-07 8.46331E-09-4.51714E-04
 -1       117 7.67399E-04 6.34350E-14-4.95054E-03-1.61140E-07 1.40124E-07-6.12260E-04
 -1       118 7.68978E-04 6.34350E-14-4.95003E-03-1.61141E-07 1.40125E-07-6.14017E-04
 -1       119 5.06977E-04 7.43358E-14-3.41179E-03-2.42743E-07 9.59199E-08-6.74810E-04
 -1       120 5.11301E-04 7.43358E-14-3.41324E-03-2.42744E-07 9.59197E-08-6.75554E-04
 -1       121 2.74717E-04-4.27331E-15-1.84643E-03-5.52905E-08-1.00332E-07-5.70883E-04
 -1       122 2.75733E-04-4.27331E-15-1.84638E-03-5.52904E-08-1.00332E-07-5.70740E-04
 -1       123-3.07499E-04 1.33428E-13-5.59323E-04-3.67297E-07 1.04815E-07-6.87968E-04
 -1       124-3.01542E-04 1.33428E-13-5.57284E-04-3.67298E-07 1.04814E-07-6.87439E-04
 -1       125 1.07636E-03 1.12840E-13-9.13745E-06 3.37017E-07 2.40094E-07-1.05046E-03
 -1       126 1.06974E-03 1.12840E-13-7.51783E-06 3.37016E-07 2.40096E-07-1.04766E-03
 -3
    1PSTEP                        32           8           3          
  100CL  108 2.80000E-01         126                     1    8           1
 -4  ERROR       1    1
 -5  STR(%)      1    1    0    0
 -1         1 6.23811E+01
 -1         2 6.56936E+01
 -1         3 6.56936E+01
 -1         4 6.23811E+01
 -1         5 6.23811E+01
 -1         6 6.56936E+01
 -1         7 6.56936E+01
 -1         8 6.23811E+01
 -1         9 6.26782E+01
 -1        10 6.07852E+01
 -1        11 6.26782E+01
 -1        12 6.07852E+01
 -1        13 6.16321E+01
 -1        14 6.07852E+01
 -1        15 6.16321E+01
 -1        16 6.07852E+01
 -1        17 5.89368E+01
 -1        18 5.89368E+01
 -1        19 5.89368E+01
 -1        20 5.89368E+01
 -1        21 5.08095E+01
 -1        22 5.08095E+01
 -1        23 5.08095E+01
 -1        24 5.08095E+01
 -1        25 4.78043E+01
 -1        26 3.32496E+01
 -1        27 4.78043E+01
 -1        28 3.32496E+01
 -1        29 7.18065E+01
 -1        30 4.56931E+01
 -1        31 7.18065E+01
 -1        32 4.56931E+01
 -1        33 7.77237E+01
 -1        34 4.99534E+01
 -1        35 7.77237E+01
 -1        36 4.99534E+01
 -1        37 7.77237E+01
 -1        38 5.06264E+01
 -1        39 7.77237E+01
 -1        40 5.06264E+01
 -1        41 7.57438E+01
 -1        42 5.06264E+01
 -1        43 7.57438E+01
 -1        44 5.06264E+01
 -1        45 7.29221E+01
 -1        46 5.00296E+01
 -1        47 7.29221E+01
 -1        48 5.00296E+01
 -1        49 7.40929E+01
 -1        50 4.93738E+01
 -1        51 7.40929E+01
 -1        52 4.93738E+01
 -1        53 7.52732E+01
 -1        54 4.91632E+01
 -1        55 7.52732E+01
 -1        56 4.91632E+01
 -1        57 7.70339E+01
 -1        58 4.89854E+01
 -1        59 7.70339E+01
 -1        60 4.89854E+01
 -1        61 7.95332E+01
 -1        62 4.91170E+01
 -1        63 7.95332E+01
 -1        64 4.91170E+01
 -1        65 8.01123E+01
 -1        66 4.91170E+01
 -1        67 8.01123E+01
 -1        68 4.91170E+01
 -1        69 8.01123E+01
 -1        70 4.79826E+01
 -1        71 8.01123E+01
 -1        72 4.79826E+01
 -1        73 7.81228E+01
 -1        74 4.47002E+01
 -1        75 7.81228E+01
 -1        76 4.47002E+01
 -1        77 7.01718E+01
 -1        78 7.01718E+01
 -1        79 7.01718E+01
 -1        80 7.01718E+01
 -1        81 7.01718E+01
 -1        82 7.01718E+01
 -1        83 7.01718E+01
 -1        84 7.01718E+01
 -1        85 6.56936E+01
 -1        86 6.56936E+01
 -1        87 6.56936E+01
 -1        88 6.56936E+01
 -1        89 6.26782E+01
 -1        90 6.26782E+01
 -1        91 6.16321E+01
 -1        92 6.16321E+01
 -1        93 5.68386E+01
 -1        94 5.68386E+01
 -1        95 4.51314E+01
 -1        96 4.51314E+01
 -1        97 4.78043E+01
 -1        98 4.78043E+01
 -1        99 7.18065E+01
 -1       100 7.18065E+01
 -1       101 7.77237E+01
 -1       102 7.77237E+01
 -1       103 7.77237E+01
 -1       104 7.77237E+01
 -1       105 7.57438E+01
 -1       106 7.57438E+01
 -1       107 7.29221E+01
 -1       108 7.29221E+01
 -1       109 7.40929E+01
 -1       110 7.40929E+01
 -1       111 7.52732E+01
 -1       112 7.52732E+01
 -1       113 7.70339E+01
 -1       114 7.70339E+01
 -1       115 7.95332E+01
 -1       116 7.95332E+01
 -1       117 8.01123E+01
 -1       118 8.01123E+01
 -1       119 8.01123E+01
 -1       120 8.01123E+01
 -1       121 7.81228E+01
 -1       122 7.81228E+01
 -1       123 5.09707E+01
 -1       124 5.09707E+01
 -1       125 4.30748E+01
 -1       126 4.30748E+01
 -3
    1PSTEP                        33           9           3          
  100CL  109 2.90000E-01         126                     1    9           1
 -4  DISP        4    1
 -5  D1          1    2    1    0
 -5  D2          1    2    2    0
 -5  D3          1    2    3    0
 -5  ALL         1    2    0    0    1ALL
 -1         1 0.00000E+00 0.00000E+00 0.00000E+00
 -1         2 0.00000E+00 0.00000E+00 0.00000E+00
 -1         3 8.77333E-04 0.00000E+00-3.27658E-05
 -1         4 1.18192E-03 0.00000E+00-1.30754E-03
 -1         5 0.00000E+00 0.00000E+00 0.00000E+00
 -1         6 0.00000E+00 0.00000E+00 0.00000E+00
 -1         7 8.77342E-04 0.00000E+00-3.28005E-05
 -1         8 1.18195E-03 0.00000E+00-1.30753E-03
 -1         9 3.06643E-03 0.00000E+00-9.17151E-05
 -1        10 3.18391E-03 0.00000E+00-2.38237E-03
 -1        11 3.06642E-03 0.00000E+00-9.17399E-05
 -1        12 3.18383E-03 0.00000E+00-2.38235E-03
 -1        13 6.02096E-03 0.00000E+00-1.79851E-04
 -1        14 6.05575E-03 0.00000E+00-3.16995E-03
 -1        15 6.02093E-03 0.00000E+00-1.79877E-04
 -1        16 6.05566E-03 0.00000E+00-3.16996E-03
 -1        17 9.50441E-03 0.00000E+00-2.91319E-04
 -1        18 9.45392E-03 0.00000E+00-3.73027E-03
 -1        19 9.50437E-03 0.00000E+00-2.91335E-04
 -1        20 9.45379E-03 0.00000E+00-3.73028E-03
 -1        21 1.32979E-02 0.00000E+00-4.12809E-04
 -1        22 1.31838E-02 0.00000E+00-4.08985E-03
 -1        23 1.32979E-02 0.00000E+00-4.12797E-04
 -1        24 1.31837E-02 0.00000E+00-4.08986E-03
 -1        25 1.72193E-02 0.00000E+00-5.32259E-04
 -1        26 1.70579E-02 0.00000E+00-4.26015E-03
 -1        27 1.72193E-02 0.00000E+00-5.32243E-04
 -1        28 1.70579E-02 0.00000E+00-4.26014E-03
 -1        29 2.10848E-02 0.00000E+00-6.36379E-04
 -1        30 2.08936E-02 0.00000E+00-4.24787E-03
 -1        31 2.10848E-02 0.00000E+00-6.36371E-04
 -1        32 2.08936E-02 0.00000E+00-4.24783E-03
 -1        33 2.47298E-02 0.00000E+00-7.15101E-04
 -1        34 2.45263E-02 0.00000E+00-4.07147E-03
 -1        35 2.47297E-02 0.00000E+00-7.15073E-04
 -1        36 2.45262E-02 0.00000E+00-4.07142E-03
 -1        37 2.80329E-02 0.00000E+00-7.64751E-04
 -1        38 2.78302E-02 0.00000E+00-3.75606E-03
 -1        39 2.80329E-02 0.00000E+00-7.64708E-04
 -1        40 2.78301E-02 0.00000E+00-3.75605E-03
 -1        41 3.08929E-02 0.00000E+00-7.84181E-04
 -1        42 3.06995E-02 0.00000E+00-3.32706E-03
 -1        43 3.08929E-02 0.00000E+00-7.84153E-04
 -1        44 3.06994E-02 0.00000E+00-3.32707E-03
 -1        45 3.32345E-02 0.00000E+00-7.74249E-04
 -1        46 3.30555E-02 0.00000E+00-2.81743E-03
 -1        47 3.32344E-02 0.00000E+00-7.74234E-04
 -1        48 3.30554E-02 0.00000E+00-2.81744E-03
 -1        49 3.50302E-02 0.00000E+00-7.39844E-04
 -1        50 3.48691E-02 0.00000E+00-2.26539E-03
 -1        51 3.50302E-02 0.00000E+00-7.39828E-04
 -1        52 3.48691E-02 0.00000E+00-2.26540E-03
 -1        53 3.62756E-02 0.00000E+00-6.88878E-04
 -1        54 3.61354E-02 0.00000E+00-1.70970E-03
 -1        55 3.62756E-02 0.00000E+00-6.88877E-04
 -1        56 3.61354E-02 0.00000E+00-1.70973E-03
 -1        57 3.70029E-02 0.00000E+00-6.30265E-04
 -1        58 3.68843E-02 0.00000E+00-1.18912E-03
 -1        59 3.70029E-02 0.00000E+00-6.30278E-04
 -1        60 3.68843E-02 0.00000E+00-1.18914E-03
 -1        61 3.72803E-02 0.00000E+00-5.71825E-04
 -1        62 3.71828E-02 0.00000E+00-7.30897E-04
 -1        63 3.72802E-02 0.00000E+00-5.71843E-04
 -1        64 3.71828E-02 0.00000E+00-7.30979E-04
 -1        65 3.71844E-02 0.00000E+00-5.17119E-04
 -1        66 3.71051E-02 0.00000E+00-3.44966E-04
 -1        67 3.71843E-02 0.00000E+00-5.17130E-04
 -1        68 3.71051E-02 0.00000E+00-3.44997E-04
 -1        69 3.67863E-02 0.00000E+00-4.68188E-04
 -1        70 3.67271E-02 0.00000E+00-4.25206E-05
 -1        71 3.67863E-02 0.00000E+00-4.68160E-04
 -1        72 3.67271E-02 0.00000E+00-4.25326E-05
 -1        73 3.61691E-02 0.00000E+00-4.31943E-04
 -1        74 3.61273E-02 0.00000E+00 1.65217E-04
 -1        75 3.61691E-02 0.00000E+00-4.31924E-04
 -1        76 3.61272E-02 0.00000E+00 1.65118E-04
 -1        77 3.54341E-02 0.00000E+00-4.05170E-04
 -1        78 3.54300E-02 0.00000E+00 2.77328E-04
 -1        79 3.54340E-02 0.00000E+00-4.05154E-04
 -1        80 3.54301E-02 0.00000E+00 2.77425E-04
 -1        81 3.47045E-02 0.00000E+00-3.96927E-04
 -1        82 3.46419E-02 0.00000E+00 3.41595E-04
 -1        83 3.47045E-02 0.00000E+00-3.96915E-04
 -1        84 3.46417E-02 0.00000E+00 3.41532E-04
 -1        85 0.00000E+00 0.00000E+00 0.00000E+00
 -1        86 1.21283E-03 0.00000E+00 1.22411E-03
 -1        87 0.00000E+00 0.00000E+00 0.00000E+00
 -1        88 1.21296E-03 0.00000E+00 1.22412E-03
 -1        89 3.29730E-03 0.00000E+00 2.18197E-03
 -1        90 3.29739E-03 0.00000E+00 2.18195E-03
 -1        91 6.24645E-03 0.00000E+00 2.79517E-03
 -1        92 6.24654E-03 0.00000E+00 2.79515E-03
 -1        93 9.71183E-03 0.00000E+00 3.13958E-03
 -1        94 9.71192E-03 0.00000E+00 3.13956E-03
 -1        95 1.34857E-02 0.00000E+00 3.26272E-03
 -1        96 1.34858E-02 0.00000E+00 3.26272E-03
 -1        97 1.73774E-02 0.00000E+00 3.20077E-03
 -1        98 1.73775E-02 0.00000E+00 3.20077E-03
 -1        99 2.12058E-02 0.00000E+00 2.98481E-03
 -1       100 2.12060E-02 0.00000E+00 2.98477E-03
 -1       101 2.48094E-02 0.00000E+00 2.65261E-03
 -1       102 2.48094E-02 0.00000E+00 2.65259E-03
 -1       103 2.80699E-02 0.00000E+00 2.23827E-03
 -1       104 2.80700E-02 0.00000E+00 2.23829E-03
 -1       105 3.08912E-02 0.00000E+00 1.77000E-03
 -1       106 3.08913E-02 0.00000E+00 1.77004E-03
 -1       107 3.32030E-02 0.00000E+00 1.27812E-03
 -1       108 3.32031E-02 0.00000E+00 1.27814E-03
 -1       109 3.49798E-02 0.00000E+00 7.90811E-04
 -1       110 3.49799E-02 0.00000E+00 7.90784E-04
 -1       111 3.62170E-02 0.00000E+00 3.33005E-04
 -1       112 3.62170E-02 0.00000E+00 3.32983E-04
 -1       113 3.69465E-02 0.00000E+00-7.38465E-05
 -1       114 3.69466E-02 0.00000E+00-7.38714E-05
 -1       115 3.72321E-02 0.00000E+00-4.17657E-04
 -1       116 3.72322E-02 0.00000E+00-4.17707E-04
 -1       117 3.71485E-02 0.00000E+00-6.94256E-04
 -1       118 3.71485E-02 0.00000E+00-6.94339E-04
 -1       119 3.67686E-02 0.00000E+00-8.98580E-04
 -1       120 3.67687E-02 0.00000E+00-8.98640E-04
 -1       121 3.61606E-02 0.00000E+00-1.02632E-03
 -1       122 3.61606E-02 0.00000E+00-1.02625E-03
 -1       123 3.54577E-02 0.00000E+00-1.08203E-03
 -1       124 3.54578E-02 0.00000E+00-1.08205E-03
 -1       125 3.46564E-02 0.00000E+00-1.08604E-03
 -1       126 3.46562E-02 0.00000E+00-1.08608E-03
 -3
    1PSTEP                        34           9           3          
  100CL  109 2.90000E-01         126                     1    9           1
 -4  STRESS      6    1
 -5  SXX         1    4    1    1
 -5  SYY         1    4    2    2
 -5  SZZ         1    4    3    3
 -5  SXY         1    4    1    2
 -5  SYZ         1    4    2    3
 -5  SZX         1    4    3    1
 -1         1-5.90510E+03-6.04900E+03-1.35173E+04-1.91247E-05 5.27368E-05 3.33871E+03
 -1         2-4.58738E+01-1.15695E+02-4.02109E+02-7.45382E-05 2.16246E-05 2.69269E+03
 -1         3 4.07768E+01-8.53181E+01-3.46418E+02 4.36274E-03-1.77916E-02 8.15714E+02
 -1         4-1.83629E+03-3.88957E+03-1.07254E+04 1.25288E-02 3.21393E-03 8.18229E+02
 -1         5-5.90506E+03-6.04896E+03-1.35172E+04-1.91268E-05 5.27350E-05 3.33878E+03
 -1         6-4.60354E+01-1.15855E+02-4.02482E+02-7.45362E-05 2.16232E-05 2.69271E+03
 -1         7 4.01695E+01-8.56174E+01-3.46793E+02 4.36273E-03-1.77916E-02 8.15704E+02
 -1         8-1.83611E+03-3.88946E+03-1.07253E+04 1.25288E-02 3.21393E-03 8.18225E+02
 -1         9 3.41259E+01-4.96965E+01-2.29764E+02-1.93640E-03-1.26914E-02 8.83866E+02
 -1        10-2.13276E+03-3.23702E+03-8.40740E+03-4.31013E-02 9.54198E-03 2.89337E+02
 -1        11 3.32340E+01-5.00691E+01-2.30114E+02-1.93640E-03-1.26914E-02 8.83868E+02
 -1        12-2.13373E+03-3.23747E+03-8.40792E+03-4.31011E-02 9.54197E-03 2.89317E+02
 -1        13 5.73268E+01-8.57051E+00-9.54848E+01-1.49898E-02-1.34857E-02 7.23228E+02
 -1        14-1.25413E+03-2.07921E+03-5.56730E+03-4.28073E-02-7.72323E-03 3.06138E+02
 -1        15 5.64324E+01-8.94395E+00-9.58332E+01-1.49897E-02-1.34857E-02 7.23190E+02
 -1        16-1.25482E+03-2.07955E+03-5.56775E+03-4.28072E-02-7.72321E-03 3.06113E+02
 -1        17 5.33463E+01 2.50030E+01 2.83398E+01-1.83521E-02-8.50076E-03 6.26919E+02
 -1        18-7.46072E+02-1.21978E+03-3.27984E+03-6.48580E-02-7.72417E-03 2.92855E+02
 -1        19 5.22611E+01 2.45864E+01 2.80389E+01-1.83520E-02-8.50077E-03 6.26982E+02
 -1        20-7.47045E+02-1.22019E+03-3.28024E+03-6.48577E-02-7.72417E-03 2.92858E+02
 -1        21 5.06805E+01 5.97688E+01 1.50849E+02-7.38930E-03 6.15421E-03 5.63152E+02
 -1        22-2.66447E+02-4.55597E+02-1.24272E+03-4.95282E-02-5.18329E-03 3.47633E+02
 -1        23 4.96533E+01 5.93717E+01 1.50554E+02-7.38926E-03 6.15420E-03 5.63239E+02
 -1        24-2.67236E+02-4.55898E+02-1.24293E+03-4.95281E-02-5.18331E-03 3.47688E+02
 -1        25 4.39016E+01 9.06601E+01 2.61221E+02 7.01079E-03 8.29163E-03 5.11693E+02
 -1        26 1.42812E+02 2.18802E+02 5.92694E+02-3.03209E-02 5.48932E-03 4.09765E+02
 -1        27 4.30112E+01 9.02720E+01 2.60819E+02 7.01077E-03 8.29163E-03 5.11789E+02
 -1        28 1.42189E+02 2.18615E+02 5.92694E+02-3.03208E-02 5.48931E-03 4.09841E+02
 -1        29 2.54828E+01 1.14016E+02 3.56022E+02 1.41172E-02 4.15055E-03 4.41105E+02
 -1        30 4.84543E+02 7.98364E+02 2.19791E+03-2.62865E-02 2.56501E-02 4.44023E+02
 -1        31 2.44801E+01 1.13594E+02 3.55617E+02 1.41171E-02 4.15055E-03 4.41174E+02
 -1        32 4.83769E+02 7.98085E+02 2.19775E+03-2.62864E-02 2.56501E-02 4.44081E+02
 -1        33 9.21089E+00 1.31437E+02 4.27507E+02-2.04083E-02 1.42961E-02 3.59948E+02
 -1        34 7.64164E+02 1.26982E+03 3.51413E+03-6.03599E-02 2.92781E-02 4.42849E+02
 -1        35 8.15069E+00 1.31022E+02 4.27182E+02-2.04082E-02 1.42961E-02 3.60027E+02
 -1        36 7.63222E+02 1.26936E+03 3.51353E+03-6.03596E-02 2.92781E-02 4.42903E+02
 -1        37-1.82556E+00 1.42962E+02 4.73942E+02-9.83424E-03 2.19042E-02 2.74611E+02
 -1        38 9.81138E+02 1.63404E+03 4.53755E+03-4.14279E-02 5.39365E-03 4.05941E+02
 -1        39-2.77723E+00 1.42557E+02 4.73542E+02-9.83419E-03 2.19042E-02 2.74699E+02
 -1        40 9.80349E+02 1.63361E+03 4.53688E+03-4.14277E-02 5.39362E-03 4.05985E+02
 -1        41-1.28079E+01 1.50566E+02 5.07839E+02 1.04022E-02 1.46856E-02 1.74141E+02
 -1        42 1.12537E+03 1.88631E+03 5.25636E+03-1.43357E-02-9.82754E-03 3.24887E+02
 -1        43-1.36152E+01 1.50188E+02 5.07385E+02 1.04021E-02 1.46856E-02 1.74006E+02
 -1        44 1.12482E+03 1.88605E+03 5.25606E+03-1.43356E-02-9.82751E-03 3.24684E+02
 -1        45-2.34136E+01 1.56039E+02 5.34931E+02-2.56116E-02 7.69365E-03 7.53124E+01
 -1        46 1.19330E+03 2.01760E+03 5.63859E+03-6.06225E-02-4.38288E-03 2.22168E+02
 -1        47-2.42919E+01 1.55649E+02 5.34503E+02-2.56115E-02 7.69365E-03 7.52346E+01
 -1        48 1.19259E+03 2.01731E+03 5.63834E+03-6.06223E-02-4.38283E-03 2.22037E+02
 -1        49-2.77987E+01 1.59255E+02 5.49974E+02-2.66236E-03 8.25194E-03-1.48830E+01
 -1        50 1.19445E+03 2.03068E+03 5.68238E+03-3.63859E-02-4.44911E-03 1.13889E+02
 -1        51-2.87433E+01 1.58832E+02 5.49507E+02-2.66234E-03 8.25193E-03-1.47638E+01
 -1        52 1.19373E+03 2.03035E+03 5.68199E+03-3.63858E-02-4.44913E-03 1.13992E+02
 -1        53-2.07495E+01 1.60477E+02 5.48012E+02 1.99015E-03 7.31772E-04-1.02529E+02
 -1        54 1.14030E+03 1.93275E+03 5.39990E+03-4.18940E-03-1.43077E-02 1.95997E+00
 -1        55-2.12252E+01 1.60236E+02 5.47680E+02 1.99014E-03 7.31774E-04-1.02512E+02
 -1        56 1.14017E+03 1.93269E+03 5.39981E+03-4.18940E-03-1.43077E-02 1.92941E+00
 -1        57-1.38478E+01 1.54597E+02 5.23011E+02 5.21419E-03-6.84221E-03-1.67713E+02
 -1        58 1.03275E+03 1.73957E+03 4.84484E+03-1.70551E-02-8.08060E-03-8.90094E+01
 -1        59-1.45631E+01 1.54265E+02 5.22619E+02 5.21418E-03-6.84220E-03-1.67754E+02
 -1        60 1.03216E+03 1.73925E+03 4.84434E+03-1.70550E-02-8.08057E-03-8.90763E+01
 -1        61 4.35951E+00 1.50291E+02 4.92331E+02-1.71761E-02-9.28381E-03-2.02468E+02
 -1        62 9.05534E+02 1.50045E+03 4.15460E+03-2.45655E-02-4.27191E-02-1.47295E+02
 -1        63 3.77694E+00 1.50045E+02 4.92093E+02-1.71761E-02-9.28379E-03-2.02566E+02
 -1        64 9.05345E+02 1.50035E+03 4.15445E+03-2.45654E-02-4.27191E-02-1.47489E+02
 -1        65 1.79825E+01 1.44201E+02 4.60471E+02-1.14045E-02-5.59232E-03-2.23910E+02
 -1        66 7.45348E+02 1.22692E+03 3.38411E+03-1.44063E-02-1.60706E-02-1.78548E+02
 -1        67 1.81076E+01 1.44316E+02 4.60727E+02-1.14046E-02-5.59234E-03-2.23824E+02
 -1        68 7.45444E+02 1.22706E+03 3.38447E+03-1.44063E-02-1.60706E-02-1.78519E+02
 -1        69 1.13551E+01 1.21457E+02 3.92825E+02-1.48250E-02 1.42946E-02-2.46970E+02
 -1        70 5.75090E+02 9.23295E+02 2.52566E+03 5.36104E-03-6.22834E-03-2.05117E+02
 -1        71 1.09286E+01 1.21316E+02 3.92778E+02-1.48249E-02 1.42946E-02-2.46832E+02
 -1        72 5.75355E+02 9.23317E+02 2.52547E+03 5.36103E-03-6.22835E-03-2.05254E+02
 -1        73 3.27334E+01 1.06197E+02 3.21518E+02 1.00925E-02 9.80031E-03-2.49397E+02
 -1        74 3.49354E+02 5.80629E+02 1.59578E+03-1.97562E-02-5.09780E-02-1.66771E+02
 -1        75 3.24291E+01 1.06048E+02 3.21327E+02 1.00925E-02 9.80032E-03-2.49692E+02
 -1        76 3.48962E+02 5.80601E+02 1.59608E+03-1.97562E-02-5.09781E-02-1.66952E+02
 -1        77 1.05901E+01 6.29089E+01 1.99051E+02-2.54552E-02 8.14579E-03-1.63428E+02
 -1        78 4.43797E+02 4.34739E+02 1.00935E+03 6.81615E-02 4.96309E-02-1.89994E+02
 -1        79 1.05016E+01 6.28653E+01 1.98990E+02-2.54552E-02 8.14580E-03-1.63198E+02
 -1        80 4.45868E+02 4.35674E+02 1.01040E+03 6.81616E-02 4.96309E-02-1.90067E+02
 -1        81 4.15182E+01 5.25546E+01 1.34596E+02 3.10114E-02 6.40968E-03-4.94867E+01
 -1        82-2.83567E+02 6.21955E+01 4.92617E+02-1.28906E-01-3.22679E-02-1.58234E+02
 -1        83 4.12676E+01 5.24344E+01 1.34454E+02 3.10114E-02 6.40948E-03-4.91940E+01
 -1        84-2.87594E+02 6.00425E+01 4.89470E+02-1.28905E-01-3.22668E-02-1.59654E+02
 -1        85 5.80736E+03 5.64797E+03 1.36984E+04 2.01942E-04 2.70324E-04 4.02800E+03
 -1        86 1.82842E+03 3.69510E+03 1.08600E+04 6.54181E-02 6.35772E-03 1.37286E+03
 -1        87 5.80746E+03 5.64803E+03 1.36985E+04 2.02006E-04 2.70334E-04 4.02842E+03
 -1        88 1.82715E+03 3.69455E+03 1.08594E+04 6.54178E-02 6.35771E-03 1.37284E+03
 -1        89 2.08025E+03 3.08850E+03 8.45091E+03 4.23156E-02-7.43473E-03 9.21465E+02
 -1        90 2.07927E+03 3.08806E+03 8.45038E+03 4.23154E-02-7.43474E-03 9.21369E+02
 -1        91 1.30753E+03 2.04978E+03 5.63618E+03 4.35547E-02-7.33663E-03 8.62928E+02
 -1        92 1.30630E+03 2.04924E+03 5.63560E+03 4.35545E-02-7.33663E-03 8.62922E+02
 -1        93 8.04822E+02 1.26791E+03 3.46828E+03 4.76911E-02-1.32402E-02 6.82956E+02
 -1        94 8.03490E+02 1.26736E+03 3.46777E+03 4.76908E-02-1.32402E-02 6.83054E+02
 -1        95 3.29044E+02 5.76278E+02 1.60648E+03 5.79933E-02-2.72788E-04 5.35966E+02
 -1        96 3.27744E+02 5.75754E+02 1.60604E+03 5.79930E-02-2.72748E-04 5.36059E+02
 -1        97-9.12212E+01-3.81271E+01-3.18665E+01 5.54676E-02 6.64615E-04 3.94531E+02
 -1        98-9.23127E+01-3.86442E+01-3.24961E+01 5.54673E-02 6.64649E-04 3.94625E+02
 -1        99-4.70846E+02-5.78087E+02-1.44766E+03 6.88011E-02-1.81131E-02 2.55472E+02
 -1       100-4.72080E+02-5.78661E+02-1.44834E+03 6.88007E-02-1.81130E-02 2.55595E+02
 -1       101-7.81766E+02-1.01968E+03-2.59564E+03 4.53020E-02-1.32590E-02 1.34936E+02
 -1       102-7.83045E+02-1.02016E+03-2.59596E+03 4.53017E-02-1.32589E-02 1.35080E+02
 -1       103-1.01598E+03-1.36139E+03-3.48408E+03 5.14711E-02 1.21291E-02 4.08340E+01
 -1       104-1.01712E+03-1.36179E+03-3.48427E+03 5.14708E-02 1.21291E-02 4.09524E+01
 -1       105-1.17912E+03-1.60024E+03-4.10242E+03 5.68796E-02 2.16881E-02-3.72648E+01
 -1       106-1.18011E+03-1.60067E+03-4.10285E+03 5.68793E-02 2.16881E-02-3.73871E+01
 -1       107-1.26930E+03-1.72575E+03-4.42234E+03 1.97304E-02 1.12934E-02-8.93242E+01
 -1       108-1.27043E+03-1.72633E+03-4.42312E+03 1.97303E-02 1.12934E-02-8.93545E+01
 -1       109-1.27839E+03-1.73455E+03-4.44196E+03 5.16011E-02-1.34784E-02-1.20221E+02
 -1       110-1.27964E+03-1.73515E+03-4.44269E+03 5.16008E-02-1.34783E-02-1.20041E+02
 -1       111-1.20572E+03-1.63160E+03-4.17863E+03 3.47892E-02-1.10566E-02-1.46976E+02
 -1       112-1.20642E+03-1.63190E+03-4.17892E+03 3.47891E-02-1.10566E-02-1.46915E+02
 -1       113-1.07969E+03-1.44632E+03-3.69906E+03 4.67660E-02-1.26163E-02-1.62603E+02
 -1       114-1.08064E+03-1.44677E+03-3.69959E+03 4.67658E-02-1.26163E-02-1.62574E+02
 -1       115-9.08253E+02-1.20812E+03-3.08951E+03 3.12304E-02-2.55211E-02-1.64862E+02
 -1       116-9.09410E+02-1.20869E+03-3.09025E+03 3.12303E-02-2.55210E-02-1.64949E+02
 -1       117-7.15090E+02-9.40723E+02-2.40291E+03-1.61126E-02-4.20056E-02-1.63354E+02
 -1       118-7.15017E+02-9.40701E+02-2.40291E+03-1.61126E-02-4.20057E-02-1.63073E+02
 -1       119-5.40272E+02-6.65157E+02-1.66785E+03 5.21739E-02-3.04561E-02-1.89522E+02
 -1       120-5.41321E+02-6.65403E+02-1.66762E+03 5.21736E-02-3.04561E-02-1.89195E+02
 -1       121-2.68521E+02-3.47843E+02-8.88270E+02 6.41230E-03 3.65985E-02-1.83493E+02
 -1       122-2.68341E+02-3.47704E+02-8.87992E+02 6.41239E-03 3.65985E-02-1.83585E+02
 -1       123-3.09798E+02-1.99683E+02-3.54542E+02 7.50316E-02-6.15380E-03-2.30715E+02
 -1       124-3.12128E+02-2.00821E+02-3.55998E+02 7.50313E-02-6.15387E-03-2.30976E+02
 -1       125 5.91051E+02 2.54555E+02 2.59797E+02-1.08125E-01-1.70263E-02-3.43868E+02
 -1       126 5.93941E+02 2.55733E+02 2.60848E+02-1.08125E-01-1.70259E-02-3.44819E+02
 -3
    1PSTEP                        35           9           3          
  100CL  109 2.90000E-01         126                     1    9           1
 -4  TOSTRAIN    6    1
 -5  EXX         1    4    1    1
 -5  EYY         1    4    2    2
 -5  EZZ         1    4    3    3
 -5  EXY         1    4    1    2
 -5  EYZ         1    4    2    3
 -5  EZX         1    4    3    1
 -1         1-5.73669E-05-2.87755E-16-2.55861E-02 2.47507E-12 5.10094E-13 1.18190E-02
 -1         2-5.68333E-05 2.14684E-16-5.57976E-04-2.44906E-10 2.07341E-13 8.77314E-03
 -1         3-1.40762E-05-8.55570E-16-4.06516E-04 1.61426E-08-5.74409E-08 2.68064E-03
 -1         4 6.38880E-03-3.20828E-15-2.30425E-02 4.04962E-08 1.16681E-08 3.57236E-03
 -1         5-5.73637E-05-2.87755E-16-2.55859E-02 2.47157E-12 5.10094E-13 1.18193E-02
 -1         6-5.68349E-05 2.14684E-16-5.58668E-04-2.44904E-10 2.07341E-13 8.77323E-03
 -1         7-1.51038E-05-8.55570E-16-4.06768E-04 1.61426E-08-5.74409E-08 2.68059E-03
 -1         8 6.38909E-03-3.20828E-15-2.30424E-02 4.04961E-08 1.16680E-08 3.57234E-03
 -1         9-1.11391E-04-3.77964E-15-1.43420E-04-3.97634E-09-4.15127E-08 2.90073E-03
 -1        10 3.37565E-03 2.81751E-14-1.72467E-02-1.41664E-07 2.52361E-08 1.94636E-03
 -1        11-1.13070E-04-3.77964E-15-1.43355E-04-3.97634E-09-4.15128E-08 2.90066E-03
 -1        12 3.37399E-03 2.81751E-14-1.72469E-02-1.41663E-07 2.52362E-08 1.94622E-03
 -1        13-1.34387E-04 7.66657E-16 8.06395E-05-4.56678E-08-4.65695E-08 2.36237E-03
 -1        14 2.47233E-03 3.58108E-14-1.14176E-02-1.37409E-07-3.38792E-08 1.87380E-03
 -1        15-1.36066E-04 7.66657E-16 8.07030E-05-4.56677E-08-4.65695E-08 2.36214E-03
 -1        16 2.47123E-03 3.58108E-14-1.14179E-02-1.37409E-07-3.38792E-08 1.87367E-03
 -1        17-2.19309E-04-3.51295E-15 3.21184E-04-5.73786E-08-3.16468E-08 2.02178E-03
 -1        18 1.35136E-03 8.11730E-14-6.61304E-03-2.08607E-07-3.98408E-08 1.53124E-03
 -1        19-2.21506E-04-3.51295E-15 3.21576E-04-5.73784E-08-3.16469E-08 2.02181E-03
 -1        20 1.34954E-03 8.11730E-14-6.61300E-03-2.08607E-07-3.98408E-08 1.53112E-03
 -1        21-3.11746E-04-9.86973E-15 5.69198E-04-2.54445E-08 1.81656E-08 1.78368E-03
 -1        22 4.23415E-04 4.44303E-14-2.39197E-03-1.59275E-07-2.87214E-08 1.35775E-03
 -1        23-3.13830E-04-9.86973E-15 5.69560E-04-2.54444E-08 1.81656E-08 1.78379E-03
 -1        24 4.21809E-04 4.44303E-14-2.39166E-03-1.59275E-07-2.87215E-08 1.35780E-03
 -1        25-4.05955E-04-4.55355E-15 7.98359E-04 2.06178E-08 2.85450E-08 1.58851E-03
 -1        26-4.42818E-04 1.37956E-14 1.39442E-03-9.96312E-08 1.04105E-08 1.20448E-03
 -1        27-4.07630E-04-4.55355E-15 7.98352E-04 2.06177E-08 2.85450E-08 1.58870E-03
 -1        28-4.44261E-04 1.37956E-14 1.39505E-03-9.96310E-08 1.04105E-08 1.20457E-03
 -1        29-5.02526E-04-7.54983E-15 9.94685E-04 4.47010E-08 1.67645E-08 1.33763E-03
 -1        30-1.20823E-03 1.84145E-14 4.67930E-03-9.13818E-08 7.64854E-08 1.01571E-03
 -1        31-5.04439E-04-7.54983E-15 9.94765E-04 4.47009E-08 1.67645E-08 1.33771E-03
 -1        32-1.20986E-03 1.84145E-14 4.67972E-03-9.13816E-08 7.64855E-08 1.01576E-03
 -1        33-5.68645E-04-1.32802E-15 1.13342E-03-6.95006E-08 4.18954E-08 1.06487E-03
 -1        34-1.81146E-03 8.53162E-14 7.33892E-03-2.02118E-07 8.09871E-08 8.12878E-04
 -1        35-5.70759E-04-1.32802E-15 1.13373E-03-6.95004E-08 4.18954E-08 1.06496E-03
 -1        36-1.81305E-03 8.53162E-14 7.33851E-03-2.02118E-07 8.09872E-08 8.12977E-04
 -1        37-6.01433E-04 2.32522E-15 1.21287E-03-3.63925E-08 6.90672E-08 7.90976E-04
 -1        38-2.26119E-03 2.95653E-14 9.38160E-03-1.35341E-07 9.29261E-09 6.05086E-04
 -1        39-6.03234E-04 2.32522E-15 1.21291E-03-3.63925E-08 6.90672E-08 7.91152E-04
 -1        40-2.26238E-03 2.95653E-14 9.38090E-03-1.35341E-07 9.29248E-09 6.05194E-04
 -1        41-6.22151E-04-2.33818E-15 1.26374E-03 3.12029E-08 4.91298E-08 4.75299E-04
 -1        42-2.57543E-03-3.30651E-15 1.08013E-02-4.48594E-08-3.40251E-08 3.58110E-04
 -1        43-6.23507E-04-2.33818E-15 1.26345E-03 3.12028E-08 4.91297E-08 4.74807E-04
 -1        44-2.57634E-03-3.30651E-15 1.08011E-02-4.48594E-08-3.40250E-08 3.57427E-04
 -1        45-6.41845E-04 5.95599E-15 1.30551E-03-8.43333E-08 2.14260E-08 1.69156E-04
 -1        46-2.74631E-03 6.86059E-14 1.15482E-02-1.96007E-07-2.21256E-08 1.24956E-04
 -1        47-6.43398E-04 5.95599E-15 1.30537E-03-8.43332E-08 2.14260E-08 1.68845E-04
 -1        48-2.74765E-03 6.86059E-14 1.15482E-02-1.96007E-07-2.21255E-08 1.24476E-04
 -1        49-6.45335E-04-7.47913E-15 1.32281E-03-9.58885E-09 2.66034E-08-1.05265E-04
 -1        50-2.75955E-03 2.10904E-14 1.16189E-02-1.17637E-07-1.77474E-08-7.46823E-05
 -1        51-6.47057E-04-7.47913E-15 1.32269E-03-9.58883E-09 2.66034E-08-1.04929E-04
 -1        52-2.76085E-03 2.10904E-14 1.16187E-02-1.17636E-07-1.77475E-08-7.43986E-05
 -1        53-6.12368E-04-2.48304E-15 1.29646E-03 6.36932E-09 2.51383E-09-3.69473E-04
 -1        54-2.59932E-03 1.60969E-15 1.10291E-02-1.26796E-08-4.61359E-08-2.70412E-04
 -1        55-6.13127E-04-2.48304E-15 1.29617E-03 6.36931E-09 2.51383E-09-3.69428E-04
 -1        56-2.59955E-03 1.60969E-15 1.10290E-02-1.26796E-08-4.61359E-08-2.70516E-04
 -1        57-5.64595E-04-3.15994E-15 1.22548E-03 1.70963E-08-2.20381E-08-5.62651E-04
 -1        58-2.31186E-03 3.74369E-15 9.89465E-03-5.51209E-08-2.65808E-08-4.18582E-04
 -1        59-5.65841E-04-3.15994E-15 1.22528E-03 1.70963E-08-2.20381E-08-5.62795E-04
 -1        60-2.31272E-03 3.74369E-15 9.89410E-03-5.51209E-08-2.65807E-08-4.18804E-04
 -1        61-4.91379E-04 1.29045E-15 1.13615E-03-5.58361E-08-3.03891E-08-6.60959E-04
 -1        62-1.94656E-03 4.31014E-14 8.48222E-03-7.94417E-08-1.37682E-07-5.02150E-04
 -1        63-4.92467E-04 1.29045E-15 1.13617E-03-5.58361E-08-3.03891E-08-6.61279E-04
 -1        64-1.94684E-03 4.31014E-14 8.48206E-03-7.94415E-08-1.37682E-07-5.02767E-04
 -1        65-4.29955E-04 1.38176E-15 1.05072E-03-3.71602E-08-1.79518E-08-7.20594E-04
 -1        66-1.57989E-03 7.38355E-15 6.91962E-03-4.70048E-08-5.15791E-08-5.41819E-04
 -1        67-4.29919E-04 1.38176E-15 1.05118E-03-3.71602E-08-1.79518E-08-7.20310E-04
 -1        68-1.58001E-03 7.38355E-15 6.92032E-03-4.70048E-08-5.15792E-08-5.41727E-04
 -1        69-3.80390E-04-2.84080E-15 9.04486E-04-4.77428E-08 4.68730E-08-7.90123E-04
 -1        70-1.14922E-03-5.54977E-15 5.16386E-03 1.72287E-08-2.03146E-08-6.05188E-04
 -1        71-3.81299E-04-2.84080E-15 9.04781E-04-4.77427E-08 4.68730E-08-7.89669E-04
 -1        72-1.14844E-03-5.54977E-15 5.16318E-03 1.72287E-08-2.03146E-08-6.05648E-04
 -1        73-2.62422E-04-8.08294E-16 7.21862E-04 3.32126E-08 3.13448E-08-7.97392E-04
 -1        74-7.65937E-04 1.93309E-14 3.28793E-03-6.63266E-08-1.64255E-07-4.89226E-04
 -1        75-2.62955E-04-8.08294E-16 7.21746E-04 3.32125E-08 3.13448E-08-7.98345E-04
 -1        76-7.67131E-04 1.93309E-14 3.28900E-03-6.63264E-08-1.64255E-07-4.89781E-04
 -1        77-1.84957E-04-4.94530E-15 4.57237E-04-8.23296E-08 2.76030E-08-5.22030E-04
 -1        78 1.12538E-05 2.98311E-14 1.87587E-03 2.23830E-07 1.57866E-07-5.89031E-04
 -1        79-1.85076E-04-4.94530E-15 4.57165E-04-8.23296E-08 2.76031E-08-5.21284E-04
 -1        80 1.49276E-05 2.98311E-14 1.87627E-03 2.23831E-07 1.57866E-07-5.89313E-04
 -1        81-4.25202E-05-3.51890E-14 2.71120E-04 1.01079E-07 1.93887E-08-1.55620E-04
 -1        82-1.14096E-03 1.59624E-13 1.41011E-03-4.20807E-07-9.86428E-08-4.75963E-04
 -1        83-4.29331E-05-3.51890E-14 2.71021E-04 1.01078E-07 1.93881E-08-1.54663E-04
 -1        84-1.14723E-03 1.59624E-13 1.40704E-03-4.20806E-07-9.86402E-08-4.80538E-04
 -1        85-5.62996E-05-1.27746E-14 2.50190E-02 3.13989E-10 4.37453E-13 1.21281E-02
 -1        86-6.41695E-03 6.91910E-14 2.25967E-02 2.11576E-07 2.54369E-08 3.53279E-03
 -1        87-5.63061E-05-1.27746E-14 2.50193E-02 3.14076E-10 4.37455E-13 1.21294E-02
 -1        88-6.41930E-03 6.91910E-14 2.25966E-02 2.11576E-07 2.54370E-08 3.53270E-03
 -1        89-3.59843E-03 3.11401E-14 1.71182E-02 1.38243E-07-1.72327E-08 1.95771E-03
 -1        90-3.60013E-03 3.11401E-14 1.71180E-02 1.38243E-07-1.72328E-08 1.95735E-03
 -1        91-2.74111E-03 2.92462E-14 1.16843E-02 1.42692E-07-1.50376E-08 1.89278E-03
 -1        92-2.74337E-03 2.92462E-14 1.16842E-02 1.42692E-07-1.50376E-08 1.89265E-03
 -1        93-1.78997E-03 3.60019E-14 7.30936E-03 1.57656E-07-3.19753E-08 1.57649E-03
 -1        94-1.79255E-03 3.60019E-14 7.30951E-03 1.57655E-07-3.19753E-08 1.57663E-03
 -1        95-1.04691E-03 5.55077E-14 3.55127E-03 1.88010E-07 1.29114E-08 1.40582E-03
 -1        96-1.04947E-03 5.55077E-14 3.55155E-03 1.88010E-07 1.29114E-08 1.40591E-03
 -1        97-3.69091E-04 5.57561E-14 2.05807E-04 1.79642E-07 1.56265E-08 1.25208E-03
 -1        98-3.70999E-04 5.57561E-14 2.05476E-04 1.79642E-07 1.56265E-08 1.25227E-03
 -1        99 2.03178E-04 9.30839E-14-2.70285E-03 2.27553E-07-4.26630E-08 1.05660E-03
 -1       100 2.00984E-04 9.30839E-14-2.70313E-03 2.27552E-07-4.26631E-08 1.05686E-03
 -1       101 6.74171E-04 2.71464E-14-5.07882E-03 1.49967E-07-3.32337E-08 8.39842E-04
 -1       102 6.71536E-04 2.71464E-14-5.07826E-03 1.49966E-07-3.32337E-08 8.40102E-04
 -1       103 1.05833E-03 4.44311E-14-6.93347E-03 1.64720E-07 4.99433E-08 6.21627E-04
 -1       104 1.05591E-03 4.44311E-14-6.93277E-03 1.64719E-07 4.99434E-08 6.21830E-04
 -1       105 1.33112E-03 6.81287E-14-8.23230E-03 1.81211E-07 8.06122E-08 3.70161E-04
 -1       106 1.32933E-03 6.81287E-14-8.23234E-03 1.81211E-07 8.06121E-08 3.69660E-04
 -1       107 1.46262E-03-1.62151E-15-8.90236E-03 6.25624E-08 3.97538E-08 1.32944E-04
 -1       108 1.46086E-03-1.62151E-15-8.90306E-03 6.25623E-08 3.97538E-08 1.32795E-04
 -1       109 1.46888E-03 4.50105E-14-8.94639E-03 1.69175E-07-3.89409E-08-7.71151E-05
 -1       110 1.46674E-03 4.50105E-14-8.94682E-03 1.69175E-07-3.89408E-08-7.65699E-05
 -1       111 1.37459E-03 2.33466E-14-8.41052E-03 1.13902E-07-3.39551E-08-2.85083E-04
 -1       112 1.37329E-03 2.33466E-14-8.41051E-03 1.13902E-07-3.39551E-08-2.84912E-04
 -1       113 1.18267E-03 4.24982E-14-7.42302E-03 1.52589E-07-3.96976E-08-4.40862E-04
 -1       114 1.18104E-03 4.24982E-14-7.42330E-03 1.52589E-07-3.96976E-08-4.40788E-04
 -1       115 9.63799E-04 2.12910E-14-6.18018E-03 1.01738E-07-8.33899E-08-5.21161E-04
 -1       116 9.61907E-04 2.12910E-14-6.18075E-03 1.01738E-07-8.33899E-08-5.21456E-04
 -1       117 7.19980E-04 2.82634E-14-4.78509E-03-5.30730E-08-1.37090E-07-5.56166E-04
 -1       118 7.20170E-04 2.82634E-14-4.78519E-03-5.30732E-08-1.37090E-07-5.55247E-04
 -1       119 3.88436E-04 3.87110E-14-3.26490E-03 1.68663E-07-1.00706E-07-6.51948E-04
 -1       120 3.85838E-04 3.87110E-14-3.26336E-03 1.68663E-07-1.00707E-07-6.50837E-04
 -1       121 2.41092E-04 1.02906E-14-1.74676E-03 2.24052E-08 1.18925E-07-6.22941E-04
 -1       122 2.41222E-04 1.02906E-14-1.74629E-03 2.24053E-08 1.18925E-07-6.23241E-04
 -1       123-3.81169E-04 3.33018E-14-4.83528E-04 2.43576E-07-2.32881E-08-7.52519E-04
 -1       124-3.85080E-04 3.33018E-14-4.84543E-04 2.43576E-07-2.32885E-08-7.53336E-04
 -1       125 1.05592E-03 9.79056E-14 4.80116E-05-3.51870E-07-5.04828E-08-1.12981E-03
 -1       126 1.06136E-03 9.79056E-14 4.76875E-05-3.51871E-07-5.04810E-08-1.13296E-03
 -3
    1PSTEP                        36           9           3          
  100CL  109 2.90000E-01         126                     1    9           1
 -4  ERROR       1    1
 -5  STR(%)      1    1    0    0
 -1         1 6.19007E+01
 -1         2 6.61003E+01
 -1         3 6.61003E+01
 -1         4 6.19007E+01
 -1         5 6.19007E+01
 -1         6 6.61003E+01
 -1         7 6.61003E+01
 -1         8 6.19007E+01
 -1         9 6.32665E+01
 -1        10 6.08589E+01
 -1        11 6.32665E+01
 -1        12 6.08589E+01
 -1        13 6.23954E+01
 -1        14 6.08589E+01
 -1        15 6.23954E+01
 -1        16 6.08589E+01
 -1        17 6.01736E+01
 -1        18 6.01736E+01
 -1        19 6.01736E+01
 -1        20 6.01736E+01
 -1        21 5.46967E+01
 -1        22 5.46967E+01
 -1        23 5.46967E+01
 -1        24 5.46967E+01
 -1        25 4.58504E+01
 -1        26 4.58504E+01
 -1        27 4.58504E+01
 -1        28 4.58504E+01
 -1        29 7.18651E+01
 -1        30 4.67434E+01
 -1        31 7.18651E+01
 -1        32 4.67434E+01
 -1        33 7.61701E+01
 -1        34 5.10722E+01
 -1        35 7.61701E+01
 -1        36 5.10722E+01
 -1        37 7.61701E+01
 -1        38 5.22834E+01
 -1        39 7.61701E+01
 -1        40 5.22834E+01
 -1        41 7.29766E+01
 -1        42 5.22834E+01
 -1        43 7.29766E+01
 -1        44 5.22834E+01
 -1        45 7.00175E+01
 -1        46 5.21423E+01
 -1        47 7.00175E+01
 -1        48 5.21423E+01
 -1        49 6.99139E+01
 -1        50 5.18151E+01
 -1        51 6.99139E+01
 -1        52 5.18151E+01
 -1        53 7.22751E+01
 -1        54 5.19021E+01
 -1        55 7.22751E+01
 -1        56 5.19021E+01
 -1        57 7.44932E+01
 -1        58 5.19021E+01
 -1        59 7.44932E+01
 -1        60 5.19021E+01
 -1        61 7.72742E+01
 -1        62 5.14717E+01
 -1        63 7.72742E+01
 -1        64 5.14717E+01
 -1        65 7.99004E+01
 -1        66 5.04241E+01
 -1        67 7.99004E+01
 -1        68 5.04241E+01
 -1        69 7.99004E+01
 -1        70 4.80055E+01
 -1        71 7.99004E+01
 -1        72 4.80055E+01
 -1        73 7.48365E+01
 -1        74 4.51459E+01
 -1        75 7.48365E+01
 -1        76 4.51459E+01
 -1        77 6.80359E+01
 -1        78 6.80359E+01
 -1        79 6.80359E+01
 -1        80 6.80359E+01
 -1        81 6.80359E+01
 -1        82 6.80359E+01
 -1        83 6.80359E+01
 -1        84 6.80359E+01
 -1        85 6.61003E+01
 -1        86 6.61003E+01
 -1        87 6.61003E+01
 -1        88 6.61003E+01
 -1        89 6.32665E+01
 -1        90 6.32665E+01
 -1        91 6.23954E+01
 -1        92 6.23954E+01
 -1        93 5.89375E+01
 -1        94 5.89375E+01
 -1        95 4.92297E+01
 -1        96 4.92297E+01
 -1        97 4.09115E+01
 -1        98 4.09115E+01
 -1        99 7.18651E+01
 -1       100 7.18651E+01
 -1       101 7.61701E+01
 -1       102 7.61701E+01
 -1       103 7.61701E+01
 -1       104 7.61701E+01
 -1       105 7.29766E+01
 -1       106 7.29766E+01
 -1       107 7.00175E+01
 -1       108 7.00175E+01
 -1       109 6.99139E+01
 -1       110 6.99139E+01
 -1       111 7.22751E+01
 -1       112 7.22751E+01
 -1       113 7.44932E+01
 -1       114 7.44932E+01
 -1       115 7.72742E+01
 -1       116 7.72742E+01
 -1       117 7.99004E+01
 -1       118 7.99004E+01
 -1       119 7.99004E+01
 -1       120 7.99004E+01
 -1       121 7.48365E+01
 -1       122 7.48365E+01
 -1       123 4.45977E+01
 -1       124 4.45977E+01
 -1       125 4.27528E+01
 -1       126 4.27528E+01
 -3
    1PSTEP                        37          10           3          
  100CL  110 3.00000E-01         126                     1   10           1
 -4  DISP        4    1
 -5  D1          1    2    1    0
 -5  D2          1    2    2    0
 -5  D3          1    2    3    0
 -5  ALL         1    2    0    0    1ALL
 -1         1 0.00000E+00 0.00000E+00 0.00000E+00
 -1         2 0.00000E+00 0.00000E+00 0.00000E+00
 -1         3 8.90172E-04 0.00000E+00-2.15231E-05
 -1         4 1.20257E-03 0.00000E+00-1.33418E-03
 -1         5 0.00000E+00 0.00000E+00 0.00000E+00
 -1         6 0.00000E+00 0.00000E+00 0.00000E+00
 -1         7 8.90218E-04 0.00000E+00-2.15291E-05
 -1         8 1.20261E-03 0.00000E+00-1.33417E-03
 -1         9 3.12734E-03 0.00000E+00-7.19750E-05
 -1        10 3.25199E-03 0.00000E+00-2.44561E-03
 -1        11 3.12734E-03 0.00000E+00-7.19808E-05
 -1        12 3.25200E-03 0.00000E+00-2.44559E-03
 -1        13 6.18243E-03 0.00000E+00-1.55192E-04
 -1        14 6.22145E-03 0.00000E+00-3.28269E-03
 -1        15 6.18243E-03 0.00000E+00-1.55188E-04
 -1        16 6.22145E-03 0.00000E+00-3.28266E-03
 -1        17 9.84066E-03 0.00000E+00-2.69046E-04
 -1        18 9.78939E-03 0.00000E+00-3.90033E-03
 -1        19 9.84067E-03 0.00000E+00-2.69051E-04
 -1        20 9.78941E-03 0.00000E+00-3.90032E-03
 -1        21 1.38675E-02 0.00000E+00-4.02414E-04
 -1        22 1.37457E-02 0.00000E+00-4.31060E-03
 -1        23 1.38675E-02 0.00000E+00-4.02422E-04
 -1        24 1.37457E-02 0.00000E+00-4.31058E-03
 -1        25 1.80547E-02 0.00000E+00-5.41133E-04
 -1        26 1.78813E-02 0.00000E+00-4.51636E-03
 -1        27 1.80547E-02 0.00000E+00-5.41121E-04
 -1        28 1.78813E-02 0.00000E+00-4.51633E-03
 -1        29 2.21839E-02 0.00000E+00-6.69438E-04
 -1        30 2.19806E-02 0.00000E+00-4.52216E-03
 -1        31 2.21838E-02 0.00000E+00-6.69417E-04
 -1        32 2.19806E-02 0.00000E+00-4.52215E-03
 -1        33 2.60653E-02 0.00000E+00-7.74071E-04
 -1        34 2.58525E-02 0.00000E+00-4.35248E-03
 -1        35 2.60653E-02 0.00000E+00-7.74063E-04
 -1        36 2.58525E-02 0.00000E+00-4.35250E-03
 -1        37 2.95712E-02 0.00000E+00-8.49222E-04
 -1        38 2.93643E-02 0.00000E+00-4.04408E-03
 -1        39 2.95713E-02 0.00000E+00-8.49226E-04
 -1        40 2.93643E-02 0.00000E+00-4.04409E-03
 -1        41 3.26234E-02 0.00000E+00-8.95412E-04
 -1        42 3.24303E-02 0.00000E+00-3.62878E-03
 -1        43 3.26234E-02 0.00000E+00-8.95423E-04
 -1        44 3.24303E-02 0.00000E+00-3.62877E-03
 -1        45 3.51610E-02 0.00000E+00-9.15033E-04
 -1        46 3.49851E-02 0.00000E+00-3.13091E-03
 -1        47 3.51610E-02 0.00000E+00-9.15048E-04
 -1        48 3.49851E-02 0.00000E+00-3.13091E-03
 -1        49 3.71249E-02 0.00000E+00-9.11461E-04
 -1        50 3.69695E-02 0.00000E+00-2.58015E-03
 -1        51 3.71249E-02 0.00000E+00-9.11476E-04
 -1        52 3.69695E-02 0.00000E+00-2.58016E-03
 -1        53 3.84901E-02 0.00000E+00-8.90204E-04
 -1        54 3.83582E-02 0.00000E+00-2.02199E-03
 -1        55 3.84901E-02 0.00000E+00-8.90209E-04
 -1        56 3.83582E-02 0.00000E+00-2.02200E-03
 -1        57 3.92975E-02 0.00000E+00-8.57792E-04
 -1        58 3.91907E-02 0.00000E+00-1.50577E-03
 -1        59 3.92975E-02 0.00000E+00-8.57785E-04
 -1        60 3.91906E-02 0.00000E+00-1.50580E-03
 -1        61 3.96418E-02 0.00000E+00-8.18387E-04
 -1        62 3.95569E-02 0.00000E+00-1.06270E-03
 -1        63 3.96418E-02 0.00000E+00-8.18373E-04
 -1        64 3.95568E-02 0.00000E+00-1.06268E-03
 -1        65 3.96283E-02 0.00000E+00-7.75406E-04
 -1        66 3.95618E-02 0.00000E+00-7.03995E-04
 -1        67 3.96283E-02 0.00000E+00-7.75382E-04
 -1        68 3.95618E-02 0.00000E+00-7.03939E-04
 -1        69 3.93405E-02 0.00000E+00-7.34994E-04
 -1        70 3.92933E-02 0.00000E+00-4.29375E-04
 -1        71 3.93405E-02 0.00000E+00-7.35018E-04
 -1        72 3.92932E-02 0.00000E+00-4.29403E-04
 -1        73 3.88669E-02 0.00000E+00-6.98708E-04
 -1        74 3.88321E-02 0.00000E+00-2.32179E-04
 -1        75 3.88669E-02 0.00000E+00-6.98719E-04
 -1        76 3.88321E-02 0.00000E+00-2.32097E-04
 -1        77 3.82776E-02 0.00000E+00-6.68729E-04
 -1        78 3.82779E-02 0.00000E+00-1.23383E-04
 -1        79 3.82776E-02 0.00000E+00-6.68731E-04
 -1        80 3.82779E-02 0.00000E+00-1.23436E-04
 -1        81 3.76901E-02 0.00000E+00-6.60086E-04
 -1        82 3.76302E-02 0.00000E+00-5.86666E-05
 -1        83 3.76900E-02 0.00000E+00-6.60084E-04
 -1        84 3.76301E-02 0.00000E+00-5.85612E-05
 -1        85 0.00000E+00 0.00000E+00 0.00000E+00
 -1        86 1.23850E-03 0.00000E+00 1.26902E-03
 -1        87 0.00000E+00 0.00000E+00 0.00000E+00
 -1        88 1.23851E-03 0.00000E+00 1.26900E-03
 -1        89 3.37283E-03 0.00000E+00 2.28055E-03
 -1        90 3.37285E-03 0.00000E+00 2.28055E-03
 -1        91 6.42883E-03 0.00000E+00 2.95400E-03
 -1        92 6.42883E-03 0.00000E+00 2.95401E-03
 -1        93 1.00703E-02 0.00000E+00 3.35084E-03
 -1        94 1.00703E-02 0.00000E+00 3.35086E-03
 -1        95 1.40753E-02 0.00000E+00 3.50137E-03
 -1        96 1.40753E-02 0.00000E+00 3.50136E-03
 -1        97 1.82271E-02 0.00000E+00 3.43650E-03
 -1        98 1.82271E-02 0.00000E+00 3.43650E-03
 -1        99 2.23115E-02 0.00000E+00 3.19155E-03
 -1       100 2.23115E-02 0.00000E+00 3.19158E-03
 -1       101 2.61460E-02 0.00000E+00 2.81554E-03
 -1       102 2.61460E-02 0.00000E+00 2.81559E-03
 -1       103 2.96063E-02 0.00000E+00 2.35697E-03
 -1       104 2.96063E-02 0.00000E+00 2.35699E-03
 -1       105 3.26158E-02 0.00000E+00 1.84831E-03
 -1       106 3.26158E-02 0.00000E+00 1.84829E-03
 -1       107 3.51169E-02 0.00000E+00 1.30920E-03
 -1       108 3.51170E-02 0.00000E+00 1.30915E-03
 -1       109 3.70556E-02 0.00000E+00 7.62664E-04
 -1       110 3.70556E-02 0.00000E+00 7.62655E-04
 -1       111 3.84115E-02 0.00000E+00 2.43542E-04
 -1       112 3.84116E-02 0.00000E+00 2.43552E-04
 -1       113 3.92245E-02 0.00000E+00-2.10168E-04
 -1       114 3.92245E-02 0.00000E+00-2.10177E-04
 -1       115 3.95842E-02 0.00000E+00-5.74733E-04
 -1       116 3.95842E-02 0.00000E+00-5.74742E-04
 -1       117 3.95894E-02 0.00000E+00-8.48589E-04
 -1       118 3.95896E-02 0.00000E+00-8.48596E-04
 -1       119 3.93170E-02 0.00000E+00-1.04034E-03
 -1       120 3.93170E-02 0.00000E+00-1.04031E-03
 -1       121 3.88548E-02 0.00000E+00-1.15800E-03
 -1       122 3.88548E-02 0.00000E+00-1.15806E-03
 -1       123 3.82941E-02 0.00000E+00-1.21032E-03
 -1       124 3.82940E-02 0.00000E+00-1.21037E-03
 -1       125 3.76393E-02 0.00000E+00-1.21945E-03
 -1       126 3.76394E-02 0.00000E+00-1.21959E-03
 -3
    1PSTEP                        38          10           3          
  100CL  110 3.00000E-01         126                     1   10           1
 -4  STRESS      6    1
 -5  SXX         1    4    1    1
 -5  SYY         1    4    2    2
 -5  SZZ         1    4    3    3
 -5  SXY         1    4    1    2
 -5  SYZ         1    4    2    3
 -5  SZX         1    4    3    1
 -1         1-6.02462E+03-6.17295E+03-1.37845E+04-3.77506E-05 9.87515E-05 3.39146E+03
 -1         2 8.39105E+00-6.27419E+01-2.86417E+02-1.04272E-05 1.04293E-04 2.73405E+03
 -1         3 7.84142E+01-4.20036E+01-2.43287E+02 2.39906E-02-2.88155E-03 8.00290E+02
 -1         4-1.88015E+03-3.98908E+03-1.09958E+04 2.28137E-02 5.20548E-03 7.99706E+02
 -1         5-6.02455E+03-6.17290E+03-1.37844E+04-3.77502E-05 9.87503E-05 3.39159E+03
 -1         6 8.37867E+00-6.27658E+01-2.86469E+02-1.04298E-05 1.04292E-04 2.73420E+03
 -1         7 7.85389E+01-4.19554E+01-2.43261E+02 2.39906E-02-2.88155E-03 8.00325E+02
 -1         8-1.88013E+03-3.98904E+03-1.09957E+04 2.28137E-02 5.20549E-03 7.99775E+02
 -1         9 8.77985E+01 8.98286E-02-1.21782E+02-2.07344E-03-2.94583E-03 8.65131E+02
 -1        10-2.19459E+03-3.36701E+03-8.75961E+03 6.92505E-03 1.15761E-02 2.45676E+02
 -1        11 8.77975E+01 9.96644E-02-1.21743E+02-2.07344E-03-2.94583E-03 8.65097E+02
 -1        12-2.19437E+03-3.36689E+03-8.75945E+03 6.92506E-03 1.15761E-02 2.45699E+02
 -1        13 1.13301E+02 3.96743E+01 7.41971E+00-2.17921E-03 2.30191E-03 7.30699E+02
 -1        14-1.32054E+03-2.22629E+03-5.97554E+03 3.23093E-04 1.52771E-02 2.77897E+02
 -1        15 1.13308E+02 3.96756E+01 7.41798E+00-2.17921E-03 2.30191E-03 7.30748E+02
 -1        16-1.32052E+03-2.22630E+03-5.97560E+03 3.23101E-04 1.52771E-02 2.77982E+02
 -1        17 1.25874E+02 7.22390E+01 1.12629E+02 2.81469E-03-2.69773E-03 6.69063E+02
 -1        18-7.82176E+02-1.34145E+03-3.64060E+03 1.00408E-02 6.10845E-03 2.93326E+02
 -1        19 1.25931E+02 7.22474E+01 1.12601E+02 2.81469E-03-2.69773E-03 6.69068E+02
 -1        20-7.82055E+02-1.34142E+03-3.64060E+03 1.00408E-02 6.10845E-03 2.93368E+02
 -1        21 1.25776E+02 9.66122E+01 1.98990E+02 3.73093E-03-4.07017E-03 6.24105E+02
 -1        22-2.59255E+02-5.19555E+02-1.46026E+03-1.96547E-03 1.08687E-02 3.75740E+02
 -1        23 1.25677E+02 9.65890E+01 1.99013E+02 3.73092E-03-4.07017E-03 6.24146E+02
 -1        24-2.59362E+02-5.19589E+02-1.46027E+03-1.96547E-03 1.08687E-02 3.75800E+02
 -1        25 1.19746E+02 1.15839E+02 2.69895E+02-9.44154E-05 6.04942E-03 5.67995E+02
 -1        26 2.03969E+02 2.24662E+02 5.51859E+02-1.41270E-03 1.36004E-02 4.54001E+02
 -1        27 1.19661E+02 1.15838E+02 2.69976E+02-9.44146E-05 6.04943E-03 5.67989E+02
 -1        28 2.03896E+02 2.24609E+02 5.51755E+02-1.41270E-03 1.36004E-02 4.54021E+02
 -1        29 1.02196E+02 1.28224E+02 3.26773E+02-1.68183E-02 1.08962E-02 4.67609E+02
 -1        30 5.89200E+02 8.57620E+02 2.29260E+03-9.64558E-03 3.62793E-03 4.79865E+02
 -1        31 1.02221E+02 1.28232E+02 3.26774E+02-1.68183E-02 1.08962E-02 4.67591E+02
 -1        32 5.89251E+02 8.57580E+02 2.29241E+03-9.64558E-03 3.62793E-03 4.79843E+02
 -1        33 7.61994E+01 1.32966E+02 3.65076E+02 5.56425E-03 4.10499E-03 3.49008E+02
 -1        34 8.75471E+02 1.33947E+03 3.63743E+03 8.89503E-03-1.15718E-02 4.54412E+02
 -1        35 7.61583E+01 1.32921E+02 3.64969E+02 5.56425E-03 4.10499E-03 3.48968E+02
 -1        36 8.75517E+02 1.33946E+03 3.63738E+03 8.89504E-03-1.15718E-02 4.54355E+02
 -1        37 5.88890E+01 1.33350E+02 3.79884E+02 4.82163E-03-1.94084E-03 2.52380E+02
 -1        38 1.08325E+03 1.68320E+03 4.59976E+03 3.87345E-03-6.71079E-03 4.08329E+02
 -1        39 5.88302E+01 1.33302E+02 3.79782E+02 4.82163E-03-1.94084E-03 2.52263E+02
 -1        40 1.08329E+03 1.68326E+03 4.59993E+03 3.87345E-03-6.71080E-03 4.08210E+02
 -1        41 4.97586E+01 1.29696E+02 3.73793E+02-1.77596E-02-5.71525E-03 1.82136E+02
 -1        42 1.23052E+03 1.92384E+03 5.27498E+03-2.18249E-02 5.24294E-03 3.53524E+02
 -1        43 4.96639E+01 1.29640E+02 3.73697E+02-1.77596E-02-5.71526E-03 1.82201E+02
 -1        44 1.23047E+03 1.92384E+03 5.27502E+03-2.18249E-02 5.24293E-03 3.53608E+02
 -1        45 4.16502E+01 1.23465E+02 3.59613E+02 9.49884E-03-7.39208E-03 1.01159E+02
 -1        46 1.31687E+03 2.07209E+03 5.69711E+03 8.45085E-03 2.40909E-03 2.66549E+02
 -1        47 4.15033E+01 1.23393E+02 3.59525E+02 9.49883E-03-7.39207E-03 1.01286E+02
 -1        48 1.31681E+03 2.07204E+03 5.69699E+03 8.45085E-03 2.40910E-03 2.66690E+02
 -1        49 3.74119E+01 1.19022E+02 3.49053E+02-2.21823E-03-7.62547E-03-1.63999E+01
 -1        50 1.33047E+03 2.10187E+03 5.78575E+03 4.97863E-03-5.40506E-03 1.30700E+02
 -1        51 3.74274E+01 1.19042E+02 3.49104E+02-2.21823E-03-7.62547E-03-1.64586E+01
 -1        52 1.33059E+03 2.10190E+03 5.78575E+03 4.97863E-03-5.40506E-03 1.30612E+02
 -1        53 3.71803E+01 1.17534E+02 3.45464E+02-9.37176E-03-2.44003E-03-1.40119E+02
 -1        54 1.25995E+03 1.98730E+03 5.46253E+03-2.38405E-02-3.89570E-03-1.91113E+01
 -1        55 3.68763E+01 1.17433E+02 3.45432E+02-9.37175E-03-2.44003E-03-1.40144E+02
 -1        56 1.25959E+03 1.98712E+03 5.46228E+03-2.38404E-02-3.89569E-03-1.91565E+01
 -1        57 4.87056E+01 1.24474E+02 3.59067E+02-2.75922E-03 3.54689E-03-2.19968E+02
 -1        58 1.12719E+03 1.75684E+03 4.80533E+03-7.71105E-03-1.67648E-02-1.28934E+02
 -1        59 4.84904E+01 1.24408E+02 3.59061E+02-2.75922E-03 3.54690E-03-2.19990E+02
 -1        60 1.12718E+03 1.75688E+03 4.80549E+03-7.71104E-03-1.67648E-02-1.29023E+02
 -1        61 5.47441E+01 1.32307E+02 3.81606E+02-5.44861E-03 7.37943E-03-2.41557E+02
 -1        62 9.45274E+02 1.46245E+03 3.98270E+03-1.26962E-02 1.49870E-02-1.76530E+02
 -1        63 5.47893E+01 1.32350E+02 3.81701E+02-5.44860E-03 7.37943E-03-2.41470E+02
 -1        64 9.45324E+02 1.46259E+03 3.98312E+03-1.26961E-02 1.49870E-02-1.76471E+02
 -1        65 4.99130E+01 1.30668E+02 3.83377E+02 7.05273E-03 1.25482E-02-2.41842E+02
 -1        66 7.49061E+02 1.15533E+03 3.13581E+03-3.52115E-03 2.92008E-02-1.90187E+02
 -1        67 4.91696E+01 1.30299E+02 3.82892E+02 7.05272E-03 1.25481E-02-2.41744E+02
 -1        68 7.48714E+02 1.15511E+03 3.13541E+03-3.52113E-03 2.92008E-02-1.90103E+02
 -1        69 7.09341E+01 1.33562E+02 3.73462E+02-5.74992E-03-1.22580E-02-2.32959E+02
 -1        70 5.99259E+02 8.80813E+02 2.35634E+03-1.80804E-02-1.41542E-02-1.89669E+02
 -1        71 7.07244E+01 1.33424E+02 3.73212E+02-5.74991E-03-1.22580E-02-2.33082E+02
 -1        72 5.99059E+02 8.80762E+02 2.35637E+03-1.80804E-02-1.41543E-02-1.89639E+02
 -1        73 7.18643E+01 1.23593E+02 3.40307E+02-3.01765E-03-5.86350E-03-2.12635E+02
 -1        74 3.69409E+02 5.67311E+02 1.53039E+03 1.08829E-02 4.23455E-02-1.32909E+02
 -1        75 7.16812E+01 1.23545E+02 3.40330E+02-3.01766E-03-5.86350E-03-2.12317E+02
 -1        76 3.69647E+02 5.67381E+02 1.53038E+03 1.08829E-02 4.23455E-02-1.32638E+02
 -1        77 5.28953E+01 8.14177E+01 2.18398E+02 3.05071E-02-1.03667E-03-1.39218E+02
 -1        78 4.56630E+02 4.32021E+02 9.87256E+02-2.49267E-02-2.72616E-02-1.74883E+02
 -1        79 5.28027E+01 8.13949E+01 2.18416E+02 3.05071E-02-1.03667E-03-1.39353E+02
 -1        80 4.55523E+02 4.31577E+02 9.86878E+02-2.49266E-02-2.72616E-02-1.75118E+02
 -1        81 4.40840E+01 5.01546E+01 1.23992E+02-4.72585E-02 9.50447E-04-2.23171E+01
 -1        82-2.83980E+02 5.83842E+01 4.80195E+02-1.31098E-02 5.42431E-02-1.47160E+02
 -1        83 4.35220E+01 4.99291E+01 1.23798E+02-4.72584E-02 9.50397E-04-2.24111E+01
 -1        84-2.82531E+02 5.94277E+01 4.82227E+02-1.31098E-02 5.42434E-02-1.46776E+02
 -1        85 6.01887E+03 5.85302E+03 1.42183E+04-1.26740E-05 3.00960E-05 4.12428E+03
 -1        86 1.93689E+03 3.87343E+03 1.13805E+04 7.99409E-03-8.64543E-03 1.39759E+03
 -1        87 6.01880E+03 5.85295E+03 1.42181E+04-1.26757E-05 3.00960E-05 4.12433E+03
 -1        88 1.93721E+03 3.87356E+03 1.13806E+04 7.99410E-03-8.64543E-03 1.39765E+03
 -1        89 2.24801E+03 3.31878E+03 9.08531E+03 8.12607E-03-2.28784E-03 9.38292E+02
 -1        90 2.24785E+03 3.31874E+03 9.08536E+03 8.12607E-03-2.28784E-03 9.38265E+02
 -1        91 1.48212E+03 2.29325E+03 6.29948E+03-8.66361E-05 4.30254E-03 9.09151E+02
 -1        92 1.48212E+03 2.29328E+03 6.29959E+03-8.66360E-05 4.30254E-03 9.09125E+02
 -1        93 9.75779E+02 1.48036E+03 4.02063E+03 2.49452E-03 9.79243E-03 7.49249E+02
 -1        94 9.75767E+02 1.48034E+03 4.02057E+03 2.49452E-03 9.79243E-03 7.49203E+02
 -1        95 4.59981E+02 7.09690E+02 1.92564E+03 1.04857E-02-3.95046E-03 6.01324E+02
 -1        96 4.59792E+02 7.09577E+02 1.92545E+03 1.04857E-02-3.95046E-03 6.01348E+02
 -1        97-9.84369E+00 4.41471E+00 2.97693E+01 1.07697E-02-2.82495E-03 4.35935E+02
 -1        98-1.00111E+01 4.38864E+00 2.98491E+01 1.07697E-02-2.82495E-03 4.35931E+02
 -1        99-4.24420E+02-6.06507E+02-1.58669E+03-1.21718E-02 1.51307E-02 2.57378E+02
 -1       100-4.24402E+02-6.06432E+02-1.58646E+03-1.21718E-02 1.51307E-02 2.57358E+02
 -1       101-7.59778E+02-1.08517E+03-2.83107E+03 1.00805E-02 2.23719E-02 1.01667E+02
 -1       102-7.59877E+02-1.08522E+03-2.83114E+03 1.00805E-02 2.23719E-02 1.01607E+02
 -1       103-9.99506E+02-1.43215E+03-3.72996E+03 4.37371E-03 8.28891E-03-6.72533E-01
 -1       104-9.99662E+02-1.43230E+03-3.73030E+03 4.37371E-03 8.28890E-03-8.15320E-01
 -1       105-1.16248E+03-1.68169E+03-4.38191E+03-1.55729E-02-1.15782E-02-5.34200E+01
 -1       106-1.16267E+03-1.68186E+03-4.38227E+03-1.55729E-02-1.15781E-02-5.33369E+01
 -1       107-1.26293E+03-1.84381E+03-4.80853E+03 2.21245E-02-2.33555E-02-9.21014E+01
 -1       108-1.26315E+03-1.84389E+03-4.80858E+03 2.21245E-02-2.33554E-02-9.19419E+01
 -1       109-1.28171E+03-1.88284E+03-4.91574E+03 4.83248E-03-4.35267E-03-1.41849E+02
 -1       110-1.28174E+03-1.88278E+03-4.91551E+03 4.83248E-03-4.35267E-03-1.41898E+02
 -1       111-1.20545E+03-1.76788E+03-4.61793E+03 9.84871E-03 5.07585E-03-1.87719E+02
 -1       112-1.20585E+03-1.76806E+03-4.61811E+03 9.84870E-03 5.07585E-03-1.87724E+02
 -1       113-1.04061E+03-1.51579E+03-3.96124E+03 1.71490E-02-4.60329E-03-2.04604E+02
 -1       114-1.04108E+03-1.51602E+03-3.96152E+03 1.71490E-02-4.60329E-03-2.04623E+02
 -1       115-8.43799E+02-1.20316E+03-3.13542E+03-1.31540E-02-4.39544E-03-1.91400E+02
 -1       116-8.43636E+02-1.20309E+03-3.13534E+03-1.31540E-02-4.39546E-03-1.91206E+02
 -1       117-6.51983E+02-8.94065E+02-2.31122E+03 5.89398E-02-3.53603E-03-1.82937E+02
 -1       118-6.52976E+02-8.94438E+02-2.31146E+03 5.89396E-02-3.53599E-03-1.82822E+02
 -1       119-4.40996E+02-5.94972E+02-1.53464E+03-5.99965E-03 1.67584E-02-1.86151E+02
 -1       120-4.41103E+02-5.95081E+02-1.53490E+03-5.99963E-03 1.67584E-02-1.86399E+02
 -1       121-2.23975E+02-3.14700E+02-8.22782E+02 3.29597E-02-2.77207E-02-1.57138E+02
 -1       122-2.24924E+02-3.15218E+02-8.23556E+02 3.29596E-02-2.77206E-02-1.57027E+02
 -1       123-2.65945E+02-1.87448E+02-3.57904E+02-1.25737E-02-2.66991E-02-2.02701E+02
 -1       124-2.65233E+02-1.87251E+02-3.57962E+02-1.25737E-02-2.66991E-02-2.02508E+02
 -1       125 5.66823E+02 2.26484E+02 1.89981E+02 4.45624E-02-7.07065E-02-2.92194E+02
 -1       126 5.64490E+02 2.25267E+02 1.88245E+02 4.45619E-02-7.07060E-02-2.91419E+02
 -3
    1PSTEP                        39          10           3          
  100CL  110 3.00000E-01         126                     1   10           1
 -4  TOSTRAIN    6    1
 -5  EXX         1    4    1    1
 -5  EYY         1    4    2    2
 -5  EZZ         1    4    3    3
 -5  EXY         1    4    1    2
 -5  EYZ         1    4    2    3
 -5  EZX         1    4    3    1
 -1         1-6.07980E-05-1.86702E-15-2.60985E-02-2.98091E-12-3.69776E-14 1.20254E-02
 -1         2-6.01226E-05-1.95663E-15-3.32003E-04-3.98896E-11 9.96001E-14 8.90152E-03
 -1         3-4.77916E-05 9.69304E-15-1.88934E-04 7.81803E-08-7.48820E-09 2.62432E-03
 -1         4 6.56214E-03 9.79194E-15-2.36391E-02 7.37365E-08 1.92408E-08 3.55583E-03
 -1         5-6.07965E-05-1.86702E-15-2.60983E-02-2.98121E-12-3.69774E-14 1.20259E-02
 -1         6-6.01210E-05-1.95663E-15-3.32105E-04-3.98929E-11 9.96003E-14 8.90199E-03
 -1         7-4.75147E-05 9.69304E-15-1.89005E-04 7.81804E-08-7.48821E-09 2.62443E-03
 -1         8 6.56208E-03 9.79194E-15-2.36389E-02 7.37365E-08 1.92408E-08 3.55605E-03
 -1         9-1.12702E-04-1.54484E-15 6.93702E-05-6.22441E-09-9.83477E-09 2.82997E-03
 -1        10 3.59375E-03 2.41475E-15-1.80182E-02 2.05853E-08 3.95572E-08 1.88297E-03
 -1        11-1.12738E-04-1.54484E-15 6.94518E-05-6.22441E-09-9.83477E-09 2.82985E-03
 -1        12 3.59408E-03 2.41475E-15-1.80180E-02 2.05854E-08 3.95572E-08 1.88304E-03
 -1        13-1.36681E-04-2.26276E-16 2.88961E-04-7.57187E-09 6.95006E-09 2.37491E-03
 -1        14 2.72275E-03 4.13800E-15-1.22979E-02-2.26020E-09 5.03556E-08 1.89239E-03
 -1        15-1.36687E-04-2.26276E-16 2.88972E-04-7.57187E-09 6.95006E-09 2.37507E-03
 -1        16 2.72281E-03 4.13800E-15-1.22980E-02-2.26018E-09 5.03556E-08 1.89268E-03
 -1        17-1.80051E-04-1.84857E-16 4.84951E-04 9.78000E-09-8.08272E-09 2.15119E-03
 -1        18 1.60641E-03 1.91689E-15-7.39139E-03 3.10528E-08 2.23283E-08 1.64318E-03
 -1        19-1.79899E-04-1.84857E-16 4.84836E-04 9.78000E-09-8.08271E-09 2.15122E-03
 -1        20 1.60666E-03 1.91689E-15-7.39148E-03 3.10528E-08 2.23283E-08 1.64334E-03
 -1        21-2.39490E-04-1.31144E-17 6.56118E-04 1.31736E-08-1.22493E-08 1.98106E-03
 -1        22 6.20541E-04 1.47589E-15-2.86507E-03-9.23401E-09 3.48322E-08 1.51984E-03
 -1        23-2.39756E-04-1.31144E-17 6.56283E-04 1.31736E-08-1.22493E-08 1.98116E-03
 -1        24 6.20272E-04 1.47589E-15-2.86494E-03-9.23399E-09 3.48322E-08 1.52000E-03
 -1        25-2.89715E-04-3.22350E-16 7.91179E-04-1.94018E-09 1.95472E-08 1.77982E-03
 -1        26-3.01361E-04 3.53151E-15 1.27893E-03-8.21075E-09 4.36183E-08 1.36334E-03
 -1        27-2.89979E-04-3.22350E-16 7.91438E-04-1.94017E-09 1.95472E-08 1.77976E-03
 -1        28-3.01436E-04 3.53151E-15 1.27877E-03-8.21074E-09 4.36183E-08 1.36341E-03
 -1        29-3.29904E-04 6.87934E-15 8.83381E-04-5.73185E-08 3.10578E-08 1.44184E-03
 -1        30-1.09001E-03 6.87776E-16 4.81957E-03-3.21501E-08 9.28026E-09 1.10350E-03
 -1        31-3.29837E-04 6.87934E-15 8.83349E-04-5.73185E-08 3.10578E-08 1.44178E-03
 -1        32-1.08971E-03 6.87776E-16 4.81910E-03-3.21501E-08 9.28024E-09 1.10349E-03
 -1        33-3.64942E-04-1.04606E-15 9.35757E-04 1.70521E-08 1.45280E-08 1.05265E-03
 -1        34-1.68989E-03 2.53159E-15 7.52170E-03 3.15549E-08-3.51375E-08 8.05982E-04
 -1        35-3.64917E-04-1.04606E-15 9.35538E-04 1.70521E-08 1.45280E-08 1.05254E-03
 -1        36-1.68971E-03 2.53159E-15 7.52152E-03 3.15549E-08-3.51374E-08 8.05822E-04
 -1        37-3.72960E-04-5.30699E-16 9.42024E-04 1.60513E-08-5.39303E-09 7.44747E-04
 -1        38-2.09529E-03-2.16824E-16 9.43083E-03 1.39627E-08-2.07989E-08 5.73252E-04
 -1        39-3.72950E-04-5.30699E-16 9.41807E-04 1.60513E-08-5.39303E-09 7.44380E-04
 -1        40-2.09531E-03-2.16824E-16 9.43112E-03 1.39627E-08-2.07989E-08 5.72851E-04
 -1        41-3.59284E-04 4.90305E-15 9.09519E-04-5.66047E-08-2.15965E-08 5.29233E-04
 -1        42-2.36796E-03 7.20944E-15 1.07582E-02-7.16422E-08 1.30365E-08 4.12390E-04
 -1        43-3.59424E-04 4.90305E-15 9.09415E-04-5.66047E-08-2.15965E-08 5.29444E-04
 -1        44-2.36814E-03 7.20944E-15 1.07583E-02-7.16422E-08 1.30365E-08 4.12639E-04
 -1        45-3.38517E-04 6.66992E-16 8.59616E-04 3.19014E-08-2.24512E-08 2.80741E-04
 -1        46-2.53758E-03-4.22966E-16 1.15782E-02 2.70223E-08 9.05658E-09 2.24873E-04
 -1        47-3.38806E-04 6.66992E-16 8.59595E-04 3.19014E-08-2.24512E-08 2.81142E-04
 -1        48-2.53763E-03-4.22966E-16 1.15780E-02 2.70223E-08 9.05660E-09 2.25328E-04
 -1        49-3.09171E-04 9.23012E-16 8.10517E-04-6.38061E-09-2.50430E-08-8.69592E-05
 -1        50-2.55601E-03-5.04991E-16 1.17272E-02 1.67409E-08-1.68152E-08-5.90150E-05
 -1        51-3.09168E-04 9.23012E-16 8.10599E-04-6.38061E-09-2.50430E-08-8.71525E-05
 -1        52-2.55573E-03-5.04991E-16 1.17271E-02 1.67409E-08-1.68152E-08-5.92759E-05
 -1        53-2.83141E-04 7.80777E-16 7.79605E-04-3.03252E-08-8.65430E-09-4.76545E-04
 -1        54-2.38636E-03 9.66080E-15 1.10548E-02-7.70645E-08-1.42542E-08-3.62913E-04
 -1        55-2.83794E-04 7.80777E-16 7.79821E-04-3.03252E-08-8.65431E-09-4.76648E-04
 -1        56-2.38692E-03 9.66080E-15 1.10546E-02-7.70645E-08-1.42542E-08-3.63067E-04
 -1        57-2.59184E-04-9.91527E-16 7.88797E-04-9.13126E-09 1.13658E-08-7.25874E-04
 -1        58-2.05687E-03 3.34264E-15 9.71502E-03-2.43801E-08-5.41931E-08-5.61350E-04
 -1        59-2.59666E-04-9.91527E-16 7.88990E-04-9.13126E-09 1.13658E-08-7.25954E-04
 -1        60-2.05705E-03 3.34264E-15 9.71539E-03-2.43801E-08-5.41932E-08-5.61638E-04
 -1        61-2.64741E-04 1.63994E-15 8.31640E-04-1.77868E-08 2.39411E-08-7.88130E-04
 -1        62-1.68972E-03 5.58139E-15 8.05906E-03-4.13905E-08 4.80202E-08-6.10212E-04
 -1        63-2.64733E-04 1.63994E-15 8.31816E-04-1.77868E-08 2.39411E-08-7.87848E-04
 -1        64-1.69000E-03 5.58139E-15 8.05994E-03-4.13905E-08 4.80203E-08-6.10029E-04
 -1        65-2.77475E-04-1.87665E-15 8.39964E-04 2.29976E-08 4.07795E-08-7.82488E-04
 -1        66-1.33116E-03 1.24793E-14 6.35816E-03-1.11954E-08 9.41588E-08-5.97673E-04
 -1        67-2.78692E-04-1.87665E-15 8.39582E-04 2.29976E-08 4.07795E-08-7.82175E-04
 -1        68-1.33157E-03 1.24793E-14 6.35760E-03-1.11953E-08 9.41587E-08-5.97408E-04
 -1        69-2.19688E-04 2.44279E-15 7.96638E-04-1.89936E-08-3.97426E-08-7.49166E-04
 -1        70-9.27301E-04 9.21002E-16 4.75659E-03-5.90468E-08-4.53386E-08-5.74430E-04
 -1        71-2.19928E-04 2.44279E-15 7.96280E-04-1.89936E-08-3.97426E-08-7.49565E-04
 -1        72-9.27782E-04 9.21002E-16 4.75684E-03-5.90468E-08-4.53386E-08-5.74321E-04
 -1        73-1.84465E-04-5.23757E-15 7.19459E-04-1.00096E-08-1.88613E-08-6.81310E-04
 -1        74-6.52294E-04 1.73935E-14 3.11633E-03 3.67534E-08 1.36792E-07-3.93592E-04
 -1        75-1.84882E-04-5.23757E-15 7.19670E-04-1.00097E-08-1.88613E-08-6.80271E-04
 -1        76-6.51733E-04 1.73935E-14 3.11608E-03 3.67535E-08 1.36792E-07-3.92726E-04
 -1        77-1.02747E-04 3.45502E-15 4.55311E-04 9.90929E-08-4.44862E-09-4.45968E-04
 -1        78 6.62003E-05 1.56679E-16 1.80911E-03-8.20205E-08-8.75309E-08-5.46686E-04
 -1        79-1.02988E-04 3.45502E-15 4.55454E-04 9.90929E-08-4.44870E-09-4.46401E-04
 -1        80 6.40272E-05 1.56679E-16 1.80935E-03-8.20204E-08-8.75309E-08-5.47417E-04
 -1        81-2.34878E-05 5.21473E-15 2.41700E-04-1.53524E-07 4.87331E-09-6.88667E-05
 -1        82-1.12621E-03 3.60138E-14 1.37882E-03-4.03986E-08 1.76555E-07-4.47611E-04
 -1        83-2.45817E-05 5.21473E-15 2.41812E-04-1.53524E-07 4.87353E-09-6.91598E-05
 -1        84-1.12485E-03 3.60138E-14 1.38198E-03-4.03984E-08 1.76555E-07-4.46332E-04
 -1        85-5.94472E-05-3.07888E-16 2.59491E-02-8.70676E-11 2.66787E-13 1.23848E-02
 -1        86-6.65772E-03 1.83786E-15 2.36285E-02 2.66900E-08-2.67269E-08 3.54678E-03
 -1        87-5.94456E-05-3.07888E-16 2.59488E-02-8.70694E-11 2.66787E-13 1.23849E-02
 -1        88-6.65711E-03 1.83786E-15 2.36285E-02 2.66900E-08-2.67269E-08 3.54697E-03
 -1        89-3.81916E-03 1.10599E-15 1.83580E-02 2.67005E-08-5.97388E-09 1.90246E-03
 -1        90-3.81955E-03 1.10599E-15 1.83582E-02 2.67005E-08-5.97389E-09 1.90235E-03
 -1        91-2.99611E-03 1.41596E-16 1.30097E-02-1.19798E-09 1.37458E-08 1.89740E-03
 -1        92-2.99619E-03 1.41596E-16 1.30099E-02-1.19798E-09 1.37458E-08 1.89729E-03
 -1        93-1.96651E-03 1.13824E-15 8.41580E-03 5.65836E-09 3.20193E-08 1.65947E-03
 -1        94-1.96646E-03 1.13824E-15 8.41566E-03 5.65835E-09 3.20193E-08 1.65933E-03
 -1        95-1.09952E-03 2.14990E-15 4.18547E-03 3.50018E-08-1.00913E-08 1.54320E-03
 -1        96-1.09978E-03 2.14990E-15 4.18524E-03 3.50018E-08-1.00912E-08 1.54327E-03
 -1        97-2.78070E-04 5.11982E-16 2.99877E-04 3.56428E-08-6.37570E-09 1.38620E-03
 -1        98-2.78521E-04 5.11982E-16 3.00215E-04 3.56428E-08-6.37571E-09 1.38612E-03
 -1        99 4.30204E-04 5.57040E-15-3.05227E-03-4.33858E-08 4.61816E-08 1.12353E-03
 -1       100 4.30036E-04 5.57040E-15-3.05178E-03-4.33858E-08 4.61816E-08 1.12341E-03
 -1       101 9.60005E-04 1.03764E-14-5.64655E-03 2.73691E-08 7.53991E-08 8.18249E-04
 -1       102 9.59882E-04 1.03764E-14-5.64666E-03 2.73690E-08 7.53991E-08 8.18049E-04
 -1       103 1.34937E-03-2.17654E-16-7.52832E-03 1.24458E-08 2.79631E-08 5.74385E-04
 -1       104 1.34941E-03-2.17654E-16-7.52902E-03 1.24458E-08 2.79630E-08 5.73957E-04
 -1       105 1.64939E-03 3.90139E-15-8.89941E-03-4.85383E-08-4.07535E-08 4.07722E-04
 -1       106 1.64929E-03 3.90139E-15-8.90002E-03-4.85383E-08-4.07535E-08 4.08029E-04
 -1       107 1.86054E-03 1.70419E-14-9.80547E-03 7.53537E-08-7.34710E-08 2.17534E-04
 -1       108 1.86002E-03 1.70419E-14-9.80531E-03 7.53536E-08-7.34710E-08 2.18038E-04
 -1       109 1.93767E-03-5.08974E-16-1.00498E-02 1.61794E-08-1.38830E-08-6.69826E-05
 -1       110 1.93740E-03-5.08974E-16-1.00492E-02 1.61794E-08-1.38830E-08-6.71771E-05
 -1       111 1.82008E-03 7.56713E-16-9.43944E-03 3.16467E-08 1.74169E-08-3.65654E-04
 -1       112 1.81933E-03 7.56713E-16-9.43944E-03 3.16467E-08 1.74169E-08-3.65690E-04
 -1       113 1.53850E-03 3.44816E-15-8.07634E-03 5.59549E-08-1.43920E-08-5.51332E-04
 -1       114 1.53772E-03 3.44816E-15-8.07653E-03 5.59549E-08-1.43920E-08-5.51401E-04
 -1       115 1.16024E-03-6.12111E-15-6.35474E-03-4.27521E-08-1.44973E-08-5.93993E-04
 -1       116 1.16054E-03-6.12111E-15-6.35473E-03-4.27520E-08-1.44973E-08-5.93355E-04
 -1       117 7.76207E-04 4.83983E-14-4.63994E-03 1.91657E-07-1.17347E-08-6.08682E-04
 -1       118 7.74183E-04 4.83983E-14-4.63952E-03 1.91657E-07-1.17347E-08-6.08298E-04
 -1       119 4.87925E-04-8.01570E-15-3.06152E-03-1.91038E-08 5.46810E-08-6.31014E-04
 -1       120 4.87926E-04-8.01570E-15-3.06199E-03-1.91038E-08 5.46810E-08-6.31835E-04
 -1       121 2.83364E-04 2.61106E-14-1.64581E-03 1.06212E-07-9.12287E-08-5.30628E-04
 -1       122 2.81969E-04 2.61106E-14-1.64666E-03 1.06212E-07-9.12287E-08-5.30262E-04
 -1       123-2.71695E-04 4.62579E-15-5.40139E-04-4.18869E-08-8.64090E-08-6.62793E-04
 -1       124-2.70003E-04 4.62579E-15-5.40978E-04-4.18869E-08-8.64089E-08-6.62194E-04
 -1       125 1.07923E-03 9.30152E-14-9.71600E-05 1.41691E-07-2.31295E-07-9.61584E-04
 -1       126 1.07569E-03 9.30152E-14-9.88984E-05 1.41690E-07-2.31295E-07-9.59063E-04
 -3
    1PSTEP                        40          10           3          
  100CL  110 3.00000E-01         126                     1   10           1
 -4  ERROR       1    1
 -5  STR(%)      1    1    0    0
 -1         1 6.26149E+01
 -1         2 6.53139E+01
 -1         3 6.53139E+01
 -1         4 6.26149E+01
 -1         5 6.26149E+01
 -1         6 6.53139E+01
 -1         7 6.53139E+01
 -1         8 6.26149E+01
 -1         9 6.27149E+01
 -1        10 6.27149E+01
 -1        11 6.27149E+01
 -1        12 6.27149E+01
 -1        13 6.28528E+01
 -1        14 6.28528E+01
 -1        15 6.28528E+01
 -1        16 6.28528E+01
 -1        17 6.28528E+01
 -1        18 6.28528E+01
 -1        19 6.28528E+01
 -1        20 6.28528E+01
 -1        21 5.80244E+01
 -1        22 5.80244E+01
 -1        23 5.80244E+01
 -1        24 5.80244E+01
 -1        25 4.72864E+01
 -1        26 4.72864E+01
 -1        27 4.72864E+01
 -1        28 4.72864E+01
 -1        29 7.09938E+01
 -1        30 4.85689E+01
 -1        31 7.09938E+01
 -1        32 4.85689E+01
 -1        33 7.29301E+01
 -1        34 5.28910E+01
 -1        35 7.29301E+01
 -1        36 5.28910E+01
 -1        37 7.29301E+01
 -1        38 5.41453E+01
 -1        39 7.29301E+01
 -1        40 5.41453E+01
 -1        41 6.98372E+01
 -1        42 5.47240E+01
 -1        43 6.98372E+01
 -1        44 5.47240E+01
 -1        45 6.74947E+01
 -1        46 5.47240E+01
 -1        47 6.74947E+01
 -1        48 5.47240E+01
 -1        49 6.58257E+01
 -1        50 5.50088E+01
 -1        51 6.58257E+01
 -1        52 5.50088E+01
 -1        53 6.80548E+01
 -1        54 5.53621E+01
 -1        55 6.80548E+01
 -1        56 5.53621E+01
 -1        57 7.08004E+01
 -1        58 5.53621E+01
 -1        59 7.08004E+01
 -1        60 5.53621E+01
 -1        61 7.44954E+01
 -1        62 5.42376E+01
 -1        63 7.44954E+01
 -1        64 5.42376E+01
 -1        65 7.75459E+01
 -1        66 5.18372E+01
 -1        67 7.75459E+01
 -1        68 5.18372E+01
 -1        69 7.96180E+01
 -1        70 4.87209E+01
 -1        71 7.96180E+01
 -1        72 4.87209E+01
 -1        73 1.02081E+02
 -1        74 4.47773E+01
 -1        75 1.02081E+02
 -1        76 4.47773E+01
 -1        77 1.02081E+02
 -1        78 6.93919E+01
 -1        79 1.02081E+02
 -1        80 6.93919E+01
 -1        81 6.93919E+01
 -1        82 6.93919E+01
 -1        83 6.93919E+01
 -1        84 6.93919E+01
 -1        85 6.53139E+01
 -1        86 6.53139E+01
 -1        87 6.53139E+01
 -1        88 6.53139E+01
 -1        89 6.24334E+01
 -1        90 6.24334E+01
 -1        91 6.14395E+01
 -1        92 6.14395E+01
 -1        93 5.78515E+01
 -1        94 5.78515E+01
 -1        95 4.86815E+01
 -1        96 4.86815E+01
 -1        97 3.93381E+01
 -1        98 3.93381E+01
 -1        99 7.09938E+01
 -1       100 7.09938E+01
 -1       101 7.29301E+01
 -1       102 7.29301E+01
 -1       103 7.29301E+01
 -1       104 7.29301E+01
 -1       105 6.98372E+01
 -1       106 6.98372E+01
 -1       107 6.74947E+01
 -1       108 6.74947E+01
 -1       109 6.58257E+01
 -1       110 6.58257E+01
 -1       111 6.80548E+01
 -1       112 6.80548E+01
 -1       113 7.08004E+01
 -1       114 7.08004E+01
 -1       115 7.44954E+01
 -1       116 7.44954E+01
 -1       117 7.75459E+01
 -1       118 7.75459E+01
 -1       119 7.96180E+01
 -1       120 7.96180E+01
 -1       121 1.02081E+02
 -1       122 1.02081E+02
 -1       123 1.02081E+02
 -1       124 1.02081E+02
 -1       125 4.12479E+01
 -1       126 4.12479E+01
 -3
    1PSTEP                        41          11           3          
  100CL  111 3.10000E-01         126                     1   11           1
 -4  DISP        4    1
 -5  D1          1    2    1    0
 -5  D2          1    2    2    0
 -5  D3          1    2    3    0
 -5  ALL         1    2    0    0    1ALL
 -1         1 0.00000E+00 0.00000E+00 0.00000E+00
 -1         2 0.00000E+00 0.00000E+00 0.00000E+00
 -1         3 8.89590E-04 0.00000E+00 1.41074E-06
 -1         4 1.19516E-03 0.00000E+00-1.34576E-03
 -1         5 0.00000E+00 0.00000E+00 0.00000E+00
 -1         6 0.00000E+00 0.00000E+00 0.00000E+00
 -1         7 8.89561E-04 0.00000E+00 1.45125E-06
 -1         8 1.19512E-03 0.00000E+00-1.34577E-03
 -1         9 3.18185E-03 0.00000E+00-2.45876E-05
 -1        10 3.29919E-03 0.00000E+00-2.49018E-03
 -1        11 3.18189E-03 0.00000E+00-2.45493E-05
 -1        12 3.29927E-03 0.00000E+00-2.49021E-03
 -1        13 6.35891E-03 0.00000E+00-9.65018E-05
 -1        14 6.38841E-03 0.00000E+00-3.37538E-03
 -1        15 6.35895E-03 0.00000E+00-9.64707E-05
 -1        16 6.38850E-03 0.00000E+00-3.37539E-03
 -1        17 1.02145E-02 0.00000E+00-2.12244E-04
 -1        18 1.01469E-02 0.00000E+00-4.04318E-03
 -1        19 1.02146E-02 0.00000E+00-2.12208E-04
 -1        20 1.01470E-02 0.00000E+00-4.04315E-03
 -1        21 1.44821E-02 0.00000E+00-3.59602E-04
 -1        22 1.43400E-02 0.00000E+00-4.49190E-03
 -1        23 1.44821E-02 0.00000E+00-3.59585E-04
 -1        24 1.43401E-02 0.00000E+00-4.49189E-03
 -1        25 1.89058E-02 0.00000E+00-5.21109E-04
 -1        26 1.87118E-02 0.00000E+00-4.72703E-03
 -1        27 1.89057E-02 0.00000E+00-5.21114E-04
 -1        28 1.87119E-02 0.00000E+00-4.72704E-03
 -1        29 2.32686E-02 0.00000E+00-6.78951E-04
 -1        30 2.30470E-02 0.00000E+00-4.76403E-03
 -1        31 2.32686E-02 0.00000E+00-6.78960E-04
 -1        32 2.30471E-02 0.00000E+00-4.76407E-03
 -1        33 2.73905E-02 0.00000E+00-8.19267E-04
 -1        34 2.71618E-02 0.00000E+00-4.62334E-03
 -1        35 2.73905E-02 0.00000E+00-8.19289E-04
 -1        36 2.71619E-02 0.00000E+00-4.62336E-03
 -1        37 3.11240E-02 0.00000E+00-9.31717E-04
 -1        38 3.09032E-02 0.00000E+00-4.33448E-03
 -1        39 3.11240E-02 0.00000E+00-9.31754E-04
 -1        40 3.09032E-02 0.00000E+00-4.33448E-03
 -1        41 3.43776E-02 0.00000E+00-1.01272E-03
 -1        42 3.41736E-02 0.00000E+00-3.93214E-03
 -1        43 3.43776E-02 0.00000E+00-1.01275E-03
 -1        44 3.41736E-02 0.00000E+00-3.93215E-03
 -1        45 3.70876E-02 0.00000E+00-1.06458E-03
 -1        46 3.69050E-02 0.00000E+00-3.44496E-03
 -1        47 3.70876E-02 0.00000E+00-1.06461E-03
 -1        48 3.69051E-02 0.00000E+00-3.44498E-03
 -1        49 3.91985E-02 0.00000E+00-1.09105E-03
 -1        50 3.90397E-02 0.00000E+00-2.90602E-03
 -1        51 3.91985E-02 0.00000E+00-1.09106E-03
 -1        52 3.90397E-02 0.00000E+00-2.90600E-03
 -1        53 4.07006E-02 0.00000E+00-1.09644E-03
 -1        54 4.05667E-02 0.00000E+00-2.35961E-03
 -1        55 4.07006E-02 0.00000E+00-1.09645E-03
 -1        56 4.05667E-02 0.00000E+00-2.35959E-03
 -1        57 4.16351E-02 0.00000E+00-1.08555E-03
 -1        58 4.15257E-02 0.00000E+00-1.85052E-03
 -1        59 4.16351E-02 0.00000E+00-1.08554E-03
 -1        60 4.15258E-02 0.00000E+00-1.85046E-03
 -1        61 4.20841E-02 0.00000E+00-1.06466E-03
 -1        62 4.19995E-02 0.00000E+00-1.41701E-03
 -1        63 4.20842E-02 0.00000E+00-1.06465E-03
 -1        64 4.19995E-02 0.00000E+00-1.41697E-03
 -1        65 4.21590E-02 0.00000E+00-1.04031E-03
 -1        66 4.20981E-02 0.00000E+00-1.07961E-03
 -1        67 4.21590E-02 0.00000E+00-1.04032E-03
 -1        68 4.20982E-02 0.00000E+00-1.07965E-03
 -1        69 4.19857E-02 0.00000E+00-1.01371E-03
 -1        70 4.19442E-02 0.00000E+00-8.36408E-04
 -1        71 4.19858E-02 0.00000E+00-1.01369E-03
 -1        72 4.19442E-02 0.00000E+00-8.36328E-04
 -1        73 4.16622E-02 0.00000E+00-9.88972E-04
 -1        74 4.16320E-02 0.00000E+00-6.75803E-04
 -1        75 4.16622E-02 0.00000E+00-9.88990E-04
 -1        76 4.16320E-02 0.00000E+00-6.75832E-04
 -1        77 4.12488E-02 0.00000E+00-9.69105E-04
 -1        78 4.12500E-02 0.00000E+00-5.86883E-04
 -1        79 4.12487E-02 0.00000E+00-9.69148E-04
 -1        80 4.12499E-02 0.00000E+00-5.86825E-04
 -1        81 4.08299E-02 0.00000E+00-9.62381E-04
 -1        82 4.07744E-02 0.00000E+00-5.27694E-04
 -1        83 4.08299E-02 0.00000E+00-9.62426E-04
 -1        84 4.07746E-02 0.00000E+00-5.27744E-04
 -1        85 0.00000E+00 0.00000E+00 0.00000E+00
 -1        86 1.26585E-03 0.00000E+00 1.33168E-03
 -1        87 0.00000E+00 0.00000E+00 0.00000E+00
 -1        88 1.26577E-03 0.00000E+00 1.33170E-03
 -1        89 3.45768E-03 0.00000E+00 2.41434E-03
 -1        90 3.45761E-03 0.00000E+00 2.41435E-03
 -1        91 6.63776E-03 0.00000E+00 3.15610E-03
 -1        92 6.63770E-03 0.00000E+00 3.15610E-03
 -1        93 1.04753E-02 0.00000E+00 3.59999E-03
 -1        94 1.04752E-02 0.00000E+00 3.59999E-03
 -1        95 1.47152E-02 0.00000E+00 3.76322E-03
 -1        96 1.47151E-02 0.00000E+00 3.76323E-03
 -1        97 1.90991E-02 0.00000E+00 3.68428E-03
 -1        98 1.90990E-02 0.00000E+00 3.68429E-03
 -1        99 2.34129E-02 0.00000E+00 3.41215E-03
 -1       100 2.34128E-02 0.00000E+00 3.41217E-03
 -1       101 2.74810E-02 0.00000E+00 2.99562E-03
 -1       102 2.74809E-02 0.00000E+00 2.99562E-03
 -1       103 3.11634E-02 0.00000E+00 2.48399E-03
 -1       104 3.11633E-02 0.00000E+00 2.48395E-03
 -1       105 3.43707E-02 0.00000E+00 1.91870E-03
 -1       106 3.43706E-02 0.00000E+00 1.91868E-03
 -1       107 3.70410E-02 0.00000E+00 1.32580E-03
 -1       108 3.70409E-02 0.00000E+00 1.32581E-03
 -1       109 3.91250E-02 0.00000E+00 7.31748E-04
 -1       110 3.91249E-02 0.00000E+00 7.31747E-04
 -1       111 4.06172E-02 0.00000E+00 1.72499E-04
 -1       112 4.06171E-02 0.00000E+00 1.72488E-04
 -1       113 4.15576E-02 0.00000E+00-3.16740E-04
 -1       114 4.15575E-02 0.00000E+00-3.16698E-04
 -1       115 4.20233E-02 0.00000E+00-7.11391E-04
 -1       116 4.20233E-02 0.00000E+00-7.11319E-04
 -1       117 4.21168E-02 0.00000E+00-1.00059E-03
 -1       118 4.21166E-02 0.00000E+00-1.00050E-03
 -1       119 4.19648E-02 0.00000E+00-1.18951E-03
 -1       120 4.19647E-02 0.00000E+00-1.18953E-03
 -1       121 4.16513E-02 0.00000E+00-1.29771E-03
 -1       122 4.16512E-02 0.00000E+00-1.29774E-03
 -1       123 4.12657E-02 0.00000E+00-1.34830E-03
 -1       124 4.12656E-02 0.00000E+00-1.34832E-03
 -1       125 4.07806E-02 0.00000E+00-1.35336E-03
 -1       126 4.07806E-02 0.00000E+00-1.35325E-03
 -3
    1PSTEP                        42          11           3          
  100CL  111 3.10000E-01         126                     1   11           1
 -4  STRESS      6    1
 -5  SXX         1    4    1    1
 -5  SYY         1    4    2    2
 -5  SZZ         1    4    3    3
 -5  SXY         1    4    1    2
 -5  SYZ         1    4    2    3
 -5  SZX         1    4    3    1
 -1         1-6.08315E+03-6.22868E+03-1.39085E+04 1.79365E-05-8.03834E-05 3.36791E+03
 -1         2 1.12426E+02 4.30446E+01-4.78933E+01 8.86148E-05-6.85281E-05 2.73485E+03
 -1         3 2.15135E+01-2.93414E+00-5.92430E+01-1.46800E-02 2.06732E-02 7.73321E+02
 -1         4-2.04427E+03-4.11639E+03-1.12437E+04-1.83665E-02-6.61082E-03 7.62044E+02
 -1         5-6.08322E+03-6.22874E+03-1.39086E+04 1.79344E-05-8.03867E-05 3.36781E+03
 -1         6 1.12605E+02 4.32291E+01-4.74653E+01 8.86189E-05-6.85296E-05 2.73478E+03
 -1         7 2.18823E+01-2.72308E+00-5.89085E+01-1.46800E-02 2.06732E-02 7.73346E+02
 -1         8-2.04437E+03-4.11645E+03-1.12439E+04-1.83665E-02-6.61081E-03 7.62006E+02
 -1         9 4.41117E+01 3.86732E+01 4.65562E+01 2.23284E-02 1.97754E-02 8.68333E+02
 -1        10-2.39034E+03-3.54710E+03-9.14446E+03 4.19903E-02-1.05844E-02 2.19984E+02
 -1        11 4.48927E+01 3.90005E+01 4.68590E+01 2.23285E-02 1.97754E-02 8.68386E+02
 -1        12-2.38985E+03-3.54686E+03-9.14419E+03 4.19904E-02-1.05844E-02 2.19980E+02
 -1        13 7.59747E+01 5.97758E+01 1.10475E+02 2.19191E-02 1.60800E-02 7.73105E+02
 -1        14-1.49069E+03-2.40348E+03-6.38031E+03 4.39547E-02-1.21620E-03 2.73867E+02
 -1        15 7.67515E+01 6.01081E+01 1.10804E+02 2.19192E-02 1.60800E-02 7.73082E+02
 -1        16-1.49010E+03-2.40316E+03-6.37984E+03 4.39548E-02-1.21623E-03 2.73794E+02
 -1        17 9.04567E+01 7.40735E+01 1.54097E+02 2.18735E-02 1.87281E-02 7.43324E+02
 -1        18-9.13717E+02-1.47523E+03-3.94696E+03 5.23142E-02 1.19560E-02 3.22876E+02
 -1        19 9.13396E+01 7.44319E+01 1.54407E+02 2.18736E-02 1.87281E-02 7.43302E+02
 -1        20-9.13024E+02-1.47491E+03-3.94659E+03 5.23143E-02 1.19560E-02 3.22854E+02
 -1        21 9.54324E+01 8.20296E+01 1.80887E+02 9.57152E-03 8.74251E-03 6.77500E+02
 -1        22-3.38789E+02-5.95232E+02-1.63096E+03 5.31982E-02 6.76848E-03 4.06764E+02
 -1        23 9.64518E+01 8.24127E+01 1.81141E+02 9.57156E-03 8.74250E-03 6.77362E+02
 -1        24-3.37977E+02-5.94925E+02-1.63076E+03 5.31984E-02 6.76843E-03 4.06633E+02
 -1        25 7.97432E+01 7.93308E+01 1.88278E+02-1.34705E-02-2.80367E-03 5.84517E+02
 -1        26 1.46867E+02 1.70312E+02 4.27422E+02 2.05432E-02-4.92823E-03 4.68483E+02
 -1        27 8.06028E+01 7.96686E+01 1.88542E+02-1.34705E-02-2.80366E-03 5.84408E+02
 -1        28 1.47432E+02 1.70487E+02 4.27440E+02 2.05432E-02-4.92824E-03 4.68356E+02
 -1        29 5.98244E+01 7.27518E+01 1.83905E+02-4.88356E-03-4.53398E-03 4.81827E+02
 -1        30 5.51321E+02 8.10718E+02 2.17225E+03 2.27637E-02-1.99552E-02 5.02351E+02
 -1        31 6.06585E+01 7.30943E+01 1.84213E+02-4.88358E-03-4.53398E-03 4.81788E+02
 -1        32 5.51894E+02 8.10950E+02 2.17245E+03 2.27638E-02-1.99552E-02 5.02316E+02
 -1        33 3.98554E+01 6.52201E+01 1.75083E+02 1.22358E-02-1.10997E-02 3.70039E+02
 -1        34 8.64279E+02 1.31438E+03 3.56308E+03 4.43662E-02-1.27104E-02 4.91338E+02
 -1        35 4.08536E+01 6.56116E+01 1.75392E+02 1.22359E-02-1.10997E-02 3.70016E+02
 -1        36 8.65053E+02 1.31476E+03 3.56360E+03 4.43664E-02-1.27104E-02 4.91360E+02
 -1        37 1.60205E+01 5.62020E+01 1.64736E+02 4.88196E-03-1.90031E-02 2.64652E+02
 -1        38 1.08174E+03 1.67550E+03 4.57429E+03 3.55821E-02 1.23009E-03 4.43330E+02
 -1        39 1.69304E+01 5.65772E+01 1.65079E+02 4.88198E-03-1.90031E-02 2.64694E+02
 -1        40 1.08238E+03 1.67579E+03 4.57460E+03 3.55822E-02 1.23011E-03 4.43423E+02
 -1        41-7.71348E-01 4.73705E+01 1.48765E+02 8.52955E-03-1.49032E-02 1.77482E+02
 -1        42 1.22721E+03 1.91862E+03 5.25938E+03 3.75874E-02-6.62965E-03 3.74802E+02
 -1        43 5.68855E-02 4.77446E+01 1.49187E+02 8.52958E-03-1.49032E-02 1.77519E+02
 -1        44 1.22777E+03 1.91882E+03 5.25951E+03 3.75875E-02-6.62963E-03 3.74871E+02
 -1        45-7.37095E+00 4.02143E+01 1.29991E+02 1.42008E-02-1.07582E-02 7.98606E+01
 -1        46 1.31118E+03 2.05962E+03 5.65860E+03 4.51451E-02-9.89971E-03 2.69668E+02
 -1        47-6.40080E+00 4.06455E+01 1.30462E+02 1.42009E-02-1.07582E-02 7.97898E+01
 -1        48 1.31187E+03 2.05995E+03 5.65901E+03 4.51452E-02-9.89973E-03 2.69621E+02
 -1        49-1.18428E+01 3.66207E+01 1.22294E+02 6.47535E-03-9.23834E-03-3.62552E+01
 -1        50 1.31800E+03 2.07878E+03 5.71712E+03 2.25837E-02 6.41367E-03 1.29859E+02
 -1        51-1.10752E+01 3.69651E+01 1.22676E+02 6.47538E-03-9.23835E-03-3.62847E+01
 -1        52 1.31841E+03 2.07900E+03 5.71748E+03 2.25837E-02 6.41368E-03 1.29886E+02
 -1        53-1.05882E+01 4.18406E+01 1.39826E+02 3.85410E-04-3.99498E-03-1.45611E+02
 -1        54 1.24277E+03 1.96328E+03 5.39600E+03 2.31812E-02 1.18077E-02-1.09139E+01
 -1        55-9.77517E+00 4.22184E+01 1.40275E+02 3.85412E-04-3.99499E-03-1.45608E+02
 -1        56 1.24335E+03 1.96359E+03 5.39647E+03 2.31812E-02 1.18077E-02-1.08544E+01
 -1        57-8.69726E+00 5.13039E+01 1.72126E+02-7.53360E-03 2.99890E-03-2.30321E+02
 -1        58 1.08645E+03 1.72172E+03 4.72601E+03 1.19612E-02 3.22839E-02-1.24542E+02
 -1        59-7.80124E+00 5.17107E+01 1.72588E+02-7.53362E-03 2.99890E-03-2.30225E+02
 -1        60 1.08689E+03 1.72193E+03 4.72628E+03 1.19613E-02 3.22839E-02-1.24325E+02
 -1        61-4.16845E+00 5.96340E+01 1.98256E+02 2.36169E-02 5.30964E-03-2.79246E+02
 -1        62 8.86045E+02 1.39809E+03 3.82326E+03 3.67929E-02 2.13853E-02-1.96454E+02
 -1        63-3.80529E+00 5.97654E+01 1.98335E+02 2.36170E-02 5.30964E-03-2.79225E+02
 -1        64 8.86097E+02 1.39798E+03 3.82284E+03 3.67930E-02 2.13853E-02-1.96306E+02
 -1        65 2.09141E+01 7.54201E+01 2.27998E+02 1.57072E-02-6.18103E-03-2.73268E+02
 -1        66 6.86230E+02 1.05891E+03 2.87164E+03 2.89870E-02-1.87085E-02-2.07814E+02
 -1        67 2.18651E+01 7.58365E+01 2.28438E+02 1.57072E-02-6.18105E-03-2.73446E+02
 -1        68 6.86596E+02 1.05912E+03 2.87196E+03 2.89870E-02-1.87085E-02-2.07902E+02
 -1        69 1.69181E+01 7.54559E+01 2.33579E+02 3.07106E-02 9.14905E-03-2.21750E+02
 -1        70 4.92306E+02 7.43862E+02 2.00138E+03 3.30599E-02 4.12325E-02-1.75843E+02
 -1        71 1.75338E+01 7.57117E+01 2.33816E+02 3.07107E-02 9.14907E-03-2.21596E+02
 -1        72 4.92373E+02 7.43900E+02 2.00144E+03 3.30599E-02 4.12325E-02-1.75696E+02
 -1        73 1.87377E+01 6.92415E+01 2.11997E+02 1.61484E-02-9.39965E-03-1.77795E+02
 -1        74 2.68399E+02 4.46527E+02 1.22558E+03 1.36168E-02-1.49737E-02-1.08047E+02
 -1        75 1.92259E+01 6.93694E+01 2.11937E+02 1.61484E-02-9.39965E-03-1.77955E+02
 -1        76 2.68300E+02 4.46455E+02 1.22544E+03 1.36168E-02-1.49737E-02-1.08231E+02
 -1        77 2.13008E+00 3.98431E+01 1.30460E+02-2.37111E-02-2.21680E-02-1.09539E+02
 -1        78 3.81213E+02 3.62314E+02 8.29139E+02-1.66024E-02 2.98863E-02-1.45582E+02
 -1        79 2.25241E+00 3.98605E+01 1.30396E+02-2.37112E-02-2.21680E-02-1.09418E+02
 -1        80 3.81309E+02 3.62329E+02 8.29091E+02-1.66024E-02 2.98863E-02-1.45083E+02
 -1        81 2.52493E+01 3.26817E+01 8.44724E+01 1.34017E-02-2.33638E-02-1.89575E+01
 -1        82-2.90113E+02 3.66294E+01 4.13503E+02 7.50873E-02-2.60256E-02-1.28698E+02
 -1        83 2.62268E+01 3.30931E+01 8.48665E+01 1.34018E-02-2.33639E-02-1.89800E+01
 -1        84-2.89340E+02 3.66750E+01 4.12876E+02 7.50875E-02-2.60252E-02-1.28157E+02
 -1        85 6.30989E+03 6.13791E+03 1.49450E+04-1.02450E-04-1.84910E-04 4.23008E+03
 -1        86 1.97086E+03 4.06710E+03 1.20415E+04-4.32951E-02 7.08608E-03 1.42130E+03
 -1        87 6.30992E+03 6.13796E+03 1.49451E+04-1.02431E-04-1.84907E-04 4.22981E+03
 -1        88 1.97146E+03 4.06736E+03 1.20418E+04-4.32952E-02 7.08609E-03 1.42129E+03
 -1        89 2.31997E+03 3.54307E+03 9.80690E+03-3.30480E-02 5.22896E-03 9.76416E+02
 -1        90 2.32108E+03 3.54352E+03 9.80732E+03-3.30482E-02 5.22894E-03 9.76535E+02
 -1        91 1.56393E+03 2.50292E+03 6.94772E+03-3.08688E-02 2.02526E-03 9.89473E+02
 -1        92 1.56499E+03 2.50335E+03 6.94812E+03-3.08689E-02 2.02525E-03 9.89529E+02
 -1        93 1.02893E+03 1.61850E+03 4.44277E+03-3.68159E-02 3.93152E-04 8.43411E+02
 -1        94 1.03014E+03 1.61902E+03 4.44331E+03-3.68161E-02 3.93150E-04 8.43422E+02
 -1        95 4.76897E+02 7.61100E+02 2.08383E+03-5.66214E-02 7.45171E-03 6.56335E+02
 -1        96 4.78284E+02 7.61715E+02 2.08450E+03-5.66218E-02 7.45177E-03 6.56220E+02
 -1        97-3.35541E+01-1.08572E+01 3.17031E+00-6.81428E-02 8.95452E-03 4.45201E+02
 -1        98-3.23808E+01-1.03368E+01 3.72958E+00-6.81431E-02 8.95458E-03 4.45104E+02
 -1        99-4.71757E+02-6.67404E+02-1.74014E+03-5.71778E-02 1.20940E-02 2.54339E+02
 -1       100-4.70691E+02-6.66971E+02-1.73977E+03-5.71781E-02 1.20940E-02 2.54249E+02
 -1       101-8.18578E+02-1.18933E+03-3.11296E+03-5.58236E-02-3.44310E-03 9.62180E+01
 -1       102-8.17293E+02-1.18887E+03-3.11269E+03-5.58240E-02-3.44307E-03 9.61444E+01
 -1       103-1.08284E+03-1.57560E+03-4.11348E+03-5.38251E-02-2.24168E-02-1.56067E+01
 -1       104-1.08163E+03-1.57511E+03-4.11305E+03-5.38254E-02-2.24168E-02-1.55569E+01
 -1       105-1.26181E+03-1.84168E+03-4.80142E+03-3.75065E-02-1.31035E-02-8.18525E+01
 -1       106-1.26069E+03-1.84111E+03-4.80068E+03-3.75066E-02-1.31035E-02-8.18451E+01
 -1       107-1.35409E+03-1.99631E+03-5.21039E+03-4.44296E-02 7.78639E-03-1.32091E+02
 -1       108-1.35278E+03-1.99570E+03-5.20970E+03-4.44299E-02 7.78645E-03-1.32245E+02
 -1       109-1.36271E+03-2.01949E+03-5.27639E+03-4.80587E-02-1.69913E-04-1.75823E+02
 -1       110-1.36161E+03-2.01905E+03-5.27602E+03-4.80589E-02-1.69885E-04-1.75904E+02
 -1       111-1.27944E+03-1.89093E+03-4.94242E+03-4.94191E-02-5.38624E-03-2.05313E+02
 -1       112-1.27829E+03-1.89038E+03-4.94175E+03-4.94194E-02-5.38623E-03-2.05375E+02
 -1       113-1.11921E+03-1.63174E+03-4.25961E+03-6.93287E-02 2.11819E-02-2.22999E+02
 -1       114-1.11771E+03-1.63098E+03-4.25861E+03-6.93291E-02 2.11820E-02-2.22971E+02
 -1       115-9.06177E+02-1.28833E+03-3.35083E+03-1.38410E-03 3.64182E-02-2.32305E+02
 -1       116-9.05522E+02-1.28798E+03-3.35033E+03-1.38410E-03 3.64182E-02-2.32468E+02
 -1       117-6.47123E+02-9.08536E+02-2.36289E+03-5.99133E-02 4.68734E-02-2.10829E+02
 -1       118-6.45741E+02-9.08061E+02-2.36270E+03-5.99138E-02 4.68735E-02-2.11221E+02
 -1       119-4.52481E+02-5.85304E+02-1.49113E+03-2.67107E-02-9.68382E-03-1.72190E+02
 -1       120-4.51554E+02-5.85067E+02-1.49126E+03-2.67108E-02-9.68385E-03-1.72035E+02
 -1       121-2.31531E+02-3.06193E+02-7.87114E+02-4.58393E-02-1.55876E-02-1.23377E+02
 -1       122-2.30241E+02-3.05647E+02-7.86587E+02-4.58395E-02-1.55876E-02-1.23359E+02
 -1       123-2.82838E+02-1.90972E+02-3.52745E+02-3.40494E-02-1.28138E-02-1.72268E+02
 -1       124-2.82300E+02-1.90555E+02-3.51897E+02-3.40494E-02-1.28138E-02-1.72248E+02
 -1       125 5.41101E+02 2.22044E+02 2.00794E+02-2.00528E-02 5.64202E-02-2.88864E+02
 -1       126 5.42417E+02 2.22958E+02 2.02533E+02-2.00530E-02 5.64206E-02-2.89264E+02
 -3
    1PSTEP                        43          11           3          
  100CL  111 3.10000E-01         126                     1   11           1
 -4  TOSTRAIN    6    1
 -5  EXX         1    4    1    1
 -5  EYY         1    4    2    2
 -5  EZZ         1    4    3    3
 -5  EXY         1    4    1    2
 -5  EYZ         1    4    2    3
 -5  EZX         1    4    3    1
 -1         1-6.37150E-05-8.84966E-16-2.63303E-02-3.63072E-11-5.23497E-13 1.19514E-02
 -1         2-6.36492E-05-1.77580E-15 1.22822E-04 2.96901E-10-4.28994E-13 8.89571E-03
 -1         3-3.77844E-04 7.53295E-15 3.05884E-04-4.99483E-08 6.58817E-08 2.51395E-03
 -1         4 6.43963E-03-1.38888E-15-2.40569E-02-5.91706E-08-2.35456E-08 3.46039E-03
 -1         5-6.37196E-05-8.84966E-16-2.63305E-02-3.63124E-11-5.23497E-13 1.19510E-02
 -1         6-6.36496E-05-1.77580E-15 1.23621E-04 2.96908E-10-4.28994E-13 8.89542E-03
 -1         7-3.77349E-04 7.53295E-15 3.06294E-04-4.99484E-08 6.58817E-08 2.51403E-03
 -1         8 6.43952E-03-1.38888E-15-2.40571E-02-5.91706E-08-2.35456E-08 3.46028E-03
 -1         9-4.05276E-04 8.18754E-15 5.24114E-04 6.87856E-08 6.75909E-08 2.80452E-03
 -1        10 3.53263E-03 2.86575E-14-1.87221E-02 1.38452E-07-2.83389E-08 1.87154E-03
 -1        11-4.03800E-04 8.18754E-15 5.24053E-04 6.87857E-08 6.75909E-08 2.80476E-03
 -1        12 3.53347E-03 2.86575E-14-1.87219E-02 1.38453E-07-2.83388E-08 1.87158E-03
 -1        13-3.68874E-04 8.82732E-15 6.04890E-04 6.72692E-08 5.67551E-08 2.47948E-03
 -1        14 2.72394E-03 3.74315E-14-1.30561E-02 1.43020E-07 5.63907E-09 1.97920E-03
 -1        15-3.67415E-04 8.82732E-15 6.04870E-04 6.72693E-08 5.67551E-08 2.47950E-03
 -1        16 2.72485E-03 3.74315E-14-1.30556E-02 1.43020E-07 5.63910E-09 1.97899E-03
 -1        17-3.62296E-04 8.62361E-15 6.73457E-04 6.58305E-08 6.60244E-08 2.36736E-03
 -1        18 1.57730E-03 5.69144E-14-7.93632E-03 1.66538E-07 5.23353E-08 1.82233E-03
 -1        19-3.60582E-04 8.62361E-15 6.73296E-04 6.58307E-08 6.60244E-08 2.36743E-03
 -1        20 1.57851E-03 5.69144E-14-7.93616E-03 1.66539E-07 5.23353E-08 1.82233E-03
 -1        21-3.39531E-04-9.02522E-15 6.92450E-04 2.84706E-08 3.08739E-08 2.14487E-03
 -1        22 5.74142E-04 5.18351E-14-3.14510E-03 1.70449E-07 3.63718E-08 1.66230E-03
 -1        23-3.37396E-04-9.02522E-15 6.91975E-04 2.84706E-08 3.08739E-08 2.14463E-03
 -1        24 5.75846E-04 5.18351E-14-3.14548E-03 1.70449E-07 3.63717E-08 1.66203E-03
 -1        25-3.28367E-04-4.78692E-15 6.71461E-04-4.28136E-08-1.27387E-08 1.83978E-03
 -1        26-3.33131E-04 2.94381E-15 1.07468E-03 6.79166E-08-1.03079E-08 1.42162E-03
 -1        27-3.26620E-04-4.78692E-15 6.71179E-04-4.28137E-08-1.27387E-08 1.83959E-03
 -1        28-3.31803E-04 2.94381E-15 1.07411E-03 6.79167E-08-1.03080E-08 1.42136E-03
 -1        29-3.10917E-04-6.76635E-15 6.23722E-04-1.45222E-08-1.59807E-08 1.50943E-03
 -1        30-1.08511E-03 1.46141E-14 4.60991E-03 7.91486E-08-5.82239E-08 1.16941E-03
 -1        31-3.09311E-04-6.76635E-15 6.23601E-04-1.45223E-08-1.59807E-08 1.50944E-03
 -1        32-1.08398E-03 1.46141E-14 4.60979E-03 7.91487E-08-5.82238E-08 1.16940E-03
 -1        33-2.87897E-04-4.90739E-15 5.64495E-04 4.25739E-08-3.29078E-08 1.15334E-03
 -1        34-1.67314E-03 4.02529E-14 7.39453E-03 1.46844E-07-2.98800E-08 8.96834E-04
 -1        35-2.85935E-04-4.90739E-15 5.64231E-04 4.25740E-08-3.29078E-08 1.15343E-03
 -1        36-1.67188E-03 4.02529E-14 7.39496E-03 1.46845E-07-2.98800E-08 8.96962E-04
 -1        37-2.79520E-04-4.77676E-16 5.13203E-04 2.02463E-08-6.03937E-08 8.17980E-04
 -1        38-2.09850E-03 2.16825E-14 9.39907E-03 1.14962E-07 1.18666E-08 6.40973E-04
 -1        39-2.77812E-04-4.77676E-16 5.13124E-04 2.02463E-08-6.03937E-08 8.18241E-04
 -1        40-2.09737E-03 2.16825E-14 9.39918E-03 1.14962E-07 1.18666E-08 6.41340E-04
 -1        41-2.64223E-04 8.71619E-16 4.56401E-04 3.06656E-08-4.66323E-08 5.43630E-04
 -1        42-2.37603E-03 2.74203E-14 1.07417E-02 1.23062E-07-1.40401E-08 4.33105E-04
 -1        43-2.62768E-04 8.71619E-16 4.56571E-04 3.06656E-08-4.66323E-08 5.43827E-04
 -1        44-2.37492E-03 2.74203E-14 1.07415E-02 1.23062E-07-1.40401E-08 4.33403E-04
 -1        45-2.27775E-04-1.64011E-15 3.86855E-04 4.79235E-08-3.27747E-08 2.36639E-04
 -1        46-2.52116E-03 4.04792E-14 1.15053E-02 1.47878E-07-2.47692E-08 1.93711E-04
 -1        47-2.26012E-04-1.64011E-15 3.86964E-04 4.79236E-08-3.27747E-08 2.36487E-04
 -1        48-2.51996E-03 4.04792E-14 1.15055E-02 1.47878E-07-2.47693E-08 1.93610E-04
 -1        49-1.99077E-04-3.68215E-15 3.42273E-04 2.22234E-08-2.92282E-08-1.33247E-04
 -1        50-2.52249E-03 8.62325E-15 1.15906E-02 7.24843E-08 2.32087E-08-9.65068E-05
 -1        51-1.97704E-04-3.68215E-15 3.42395E-04 2.22234E-08-2.92282E-08-1.33295E-04
 -1        52-2.52189E-03 8.62325E-15 1.15910E-02 7.24843E-08 2.32087E-08-9.64110E-05
 -1        53-1.91136E-04-5.55131E-15 3.58690E-04 1.67175E-09-1.29014E-08-4.84278E-04
 -1        54-2.36489E-03 1.06321E-14 1.09264E-02 7.42842E-08 3.97816E-08-3.68072E-04
 -1        55-1.89729E-04-5.55131E-15 3.58922E-04 1.67175E-09-1.29014E-08-4.84233E-04
 -1        56-2.36402E-03 1.06321E-14 1.09269E-02 7.42843E-08 3.97816E-08-3.67864E-04
 -1        57-2.06475E-04-9.60090E-15 4.18288E-04-2.45148E-08 9.45468E-09-7.56065E-04
 -1        58-2.07494E-03 1.79318E-14 9.57796E-03 3.73686E-08 1.04370E-07-5.73596E-04
 -1        59-2.04892E-04-9.60090E-15 4.18472E-04-2.45148E-08 9.45468E-09-7.55730E-04
 -1        60-2.07420E-03 1.79318E-14 9.57814E-03 3.73688E-08 1.04370E-07-5.72896E-04
 -1        61-2.17080E-04 7.56801E-15 4.68658E-04 7.67119E-08 1.77970E-08-9.10762E-04
 -1        62-1.67098E-03 3.26996E-14 7.75800E-03 1.19041E-07 6.97306E-08-6.93322E-04
 -1        63-2.16334E-04 7.56801E-15 4.68484E-04 7.67119E-08 1.77970E-08-9.10688E-04
 -1        64-1.67047E-03 3.26996E-14 7.75702E-03 1.19041E-07 6.97306E-08-6.92843E-04
 -1        65-1.87643E-04-9.09373E-15 5.10777E-04 5.10965E-08-2.01711E-08-8.87151E-04
 -1        66-1.21838E-03 1.55071E-14 5.82405E-03 9.40849E-08-6.03025E-08-6.71348E-04
 -1        67-1.85910E-04-9.09373E-15 5.10851E-04 5.10966E-08-2.01710E-08-8.87723E-04
 -1        68-1.21787E-03 1.55071E-14 5.82444E-03 9.40849E-08-6.03026E-08-6.71624E-04
 -1        69-2.00607E-04 1.30787E-14 5.25904E-04 9.99888E-08 2.94400E-08-7.17079E-04
 -1        70-8.25233E-04 4.36078E-14 4.05749E-03 1.07984E-07 1.32955E-07-5.48537E-04
 -1        71-1.99436E-04 1.30787E-14 5.25842E-04 9.99889E-08 2.94400E-08-7.16584E-04
 -1        72-8.25136E-04 4.36078E-14 4.05757E-03 1.07984E-07 1.32955E-07-5.48066E-04
 -1        73-1.73763E-04-2.45146E-15 4.73272E-04 5.22713E-08-3.08810E-08-5.73076E-04
 -1        74-5.84101E-04-1.40431E-15 2.52249E-03 4.38874E-08-4.88037E-08-3.29439E-04
 -1        75-1.72603E-04-2.45146E-15 4.72668E-04 5.22713E-08-3.08811E-08-5.73605E-04
 -1        76-5.84201E-04-1.40431E-15 2.52228E-03 4.38873E-08-4.88038E-08-3.30031E-04
 -1        77-1.28026E-04 1.41783E-14 3.00392E-04-7.76623E-08-7.14156E-08-3.52618E-04
 -1        78 5.29868E-05-7.77776E-15 1.51920E-03-5.31333E-08 9.73950E-08-4.60042E-04
 -1        79-1.27678E-04 1.41783E-14 3.00120E-04-7.76624E-08-7.14156E-08-3.52231E-04
 -1        80 5.32811E-05-7.77776E-15 1.51897E-03-5.31332E-08 9.73949E-08-4.58429E-04
 -1        81-2.70166E-05-6.06060E-15 1.69398E-04 4.29013E-08-7.62669E-08-5.94282E-05
 -1        82-1.07112E-03 8.30096E-14 1.22948E-03 2.43397E-07-8.65239E-08-3.97925E-04
 -1        83-2.51755E-05-6.06060E-15 1.69340E-04 4.29015E-08-7.62669E-08-5.95144E-05
 -1        84-1.06872E-03 8.30096E-14 1.22727E-03 2.43397E-07-8.65229E-08-3.96208E-04
 -1        85-6.35834E-05-6.25562E-15 2.72444E-02-7.54405E-11-8.17489E-13 1.26583E-02
 -1        86-7.19531E-03 3.44159E-14 2.50255E-02-1.41134E-07 1.85730E-08 3.53426E-03
 -1        87-6.35796E-05-6.25562E-15 2.72447E-02-7.54162E-11-8.17488E-13 1.26575E-02
 -1        88-7.19422E-03 3.44159E-14 2.50256E-02-1.41134E-07 1.85731E-08 3.53423E-03
 -1        89-4.34319E-03 1.22292E-14 1.98759E-02-1.07995E-07 1.10684E-08 1.87699E-03
 -1        90-4.34107E-03 1.22292E-14 1.98759E-02-1.07995E-07 1.10683E-08 1.87747E-03
 -1        91-3.46169E-03 9.78268E-15 1.43985E-02-1.00500E-07-1.68080E-10 1.98066E-03
 -1        92-3.45968E-03 9.78268E-15 1.43985E-02-1.00501E-07-1.68076E-10 1.98097E-03
 -1        93-2.30189E-03 1.47547E-14 9.35684E-03-1.19344E-07-7.87964E-09 1.82283E-03
 -1        94-2.29967E-03 1.47547E-14 9.35691E-03-1.19345E-07-7.87959E-09 1.82302E-03
 -1        95-1.25320E-03 5.28606E-14 4.56387E-03-1.85419E-07 8.90351E-09 1.65520E-03
 -1        96-1.25064E-03 5.28606E-14 4.56399E-03-1.85419E-07 8.90363E-09 1.65502E-03
 -1        97-3.23602E-04 8.85606E-14 2.79700E-04-2.23231E-07 1.03736E-08 1.41397E-03
 -1        98-3.21437E-04 8.85606E-14 2.79790E-04-2.23231E-07 1.03736E-08 1.41382E-03
 -1        99 4.63272E-04 6.10957E-14-3.34744E-03-1.88600E-07 2.40634E-08 1.15920E-03
 -1       100 4.65361E-04 6.10957E-14-3.34766E-03-1.88601E-07 2.40633E-08 1.15909E-03
 -1       101 1.09734E-03 4.85761E-14-6.23101E-03-1.80132E-07-2.52112E-08 8.87444E-04
 -1       102 1.10002E-03 4.85761E-14-6.23169E-03-1.80132E-07-2.52112E-08 8.87458E-04
 -1       103 1.53946E-03 5.87736E-14-8.33292E-03-1.69605E-07-8.55246E-08 6.31762E-04
 -1       104 1.54174E-03 5.87736E-14-8.33309E-03-1.69605E-07-8.55247E-08 6.32102E-04
 -1       105 1.84759E-03 2.46518E-14-9.78174E-03-1.19263E-07-5.03179E-08 4.16964E-04
 -1       106 1.84939E-03 2.46518E-14-9.78113E-03-1.19263E-07-5.03180E-08 4.17064E-04
 -1       107 2.06561E-03 2.87049E-14-1.06618E-02-1.45577E-07 1.84916E-08 1.73735E-04
 -1       108 2.06793E-03 2.87049E-14-1.06615E-02-1.45577E-07 1.84917E-08 1.73321E-04
 -1       109 2.12434E-03 3.78461E-14-1.08197E-02-1.56231E-07-6.41108E-09-1.10199E-04
 -1       110 2.12648E-03 3.78461E-14-1.08200E-02-1.56231E-07-6.41106E-09-1.10377E-04
 -1       111 1.98261E-03 4.15693E-14-1.01276E-02-1.60306E-07-2.19205E-08-3.73018E-04
 -1       112 1.98456E-03 4.15693E-14-1.01272E-02-1.60306E-07-2.19204E-08-3.73176E-04
 -1       113 1.66199E-03 8.64621E-14-8.69612E-03-2.26526E-07 6.61541E-08-5.78558E-04
 -1       114 1.66441E-03 8.64621E-14-8.69529E-03-2.26526E-07 6.61539E-08-5.78435E-04
 -1       115 1.23682E-03 9.73399E-15-6.79635E-03-5.11644E-09 1.19344E-07-7.09411E-04
 -1       116 1.23780E-03 9.73399E-15-6.79585E-03-5.11653E-09 1.19344E-07-7.09930E-04
 -1       117 8.43097E-04 8.12197E-14-4.76842E-03-1.94719E-07 1.52931E-07-6.88314E-04
 -1       118 8.46047E-04 8.12197E-14-4.76933E-03-1.94719E-07 1.52931E-07-6.89600E-04
 -1       119 4.24020E-04-2.44241E-15-2.95540E-03-8.69815E-08-3.12181E-08-5.75428E-04
 -1       120 4.26264E-04-2.44241E-15-2.95662E-03-8.69817E-08-3.12180E-08-5.74930E-04
 -1       121 2.36575E-04 3.58847E-14-1.56210E-03-1.49360E-07-4.98500E-08-4.13846E-04
 -1       122 2.38995E-04 3.58847E-14-1.56216E-03-1.49361E-07-4.98500E-08-4.13804E-04
 -1       123-3.09038E-04 2.07839E-14-5.17948E-04-1.11094E-07-4.08310E-08-5.62143E-04
 -1       124-3.08637E-04 2.07839E-14-5.16548E-04-1.11094E-07-4.08311E-08-5.62067E-04
 -1       125 1.01709E-03 3.48463E-14-5.42767E-05-6.33348E-08 1.83803E-07-9.45899E-04
 -1       126 1.01837E-03 3.48463E-14-5.15821E-05-6.33354E-08 1.83803E-07-9.47173E-04
 -3
    1PSTEP                        44          11           3          
  100CL  111 3.10000E-01         126                     1   11           1
 -4  ERROR       1    1
 -5  STR(%)      1    1    0    0
 -1         1 6.36059E+01
 -1         2 6.41052E+01
 -1         3 6.41052E+01
 -1         4 6.36059E+01
 -1         5 6.36059E+01
 -1         6 6.41052E+01
 -1         7 6.41052E+01
 -1         8 6.36059E+01
 -1         9 6.45146E+01
 -1        10 6.45146E+01
 -1        11 6.45146E+01
 -1        12 6.45146E+01
 -1        13 6.45146E+01
 -1        14 6.45146E+01
 -1        15 6.45146E+01
 -1        16 6.45146E+01
 -1        17 6.40773E+01
 -1        18 6.40773E+01
 -1        19 6.40773E+01
 -1        20 6.40773E+01
 -1        21 5.73574E+01
 -1        22 5.73574E+01
 -1        23 5.73574E+01
 -1        24 5.73574E+01
 -1        25 5.06466E+01
 -1        26 5.06466E+01
 -1        27 5.06466E+01
 -1        28 5.06466E+01
 -1        29 6.43408E+01
 -1        30 5.22690E+01
 -1        31 6.43408E+01
 -1        32 5.22690E+01
 -1        33 6.68633E+01
 -1        34 5.70527E+01
 -1        35 6.68633E+01
 -1        36 5.70527E+01
 -1        37 6.68633E+01
 -1        38 5.78994E+01
 -1        39 6.68633E+01
 -1        40 5.78994E+01
 -1        41 6.49330E+01
 -1        42 5.80965E+01
 -1        43 6.49330E+01
 -1        44 5.80965E+01
 -1        45 6.30361E+01
 -1        46 5.80965E+01
 -1        47 6.30361E+01
 -1        48 5.80965E+01
 -1        49 6.21065E+01
 -1        50 5.82693E+01
 -1        51 6.21065E+01
 -1        52 5.82693E+01
 -1        53 6.39574E+01
 -1        54 5.85234E+01
 -1        55 6.39574E+01
 -1        56 5.85234E+01
 -1        57 6.59516E+01
 -1        58 5.85234E+01
 -1        59 6.59516E+01
 -1        60 5.85234E+01
 -1        61 6.77177E+01
 -1        62 5.77099E+01
 -1        63 6.77177E+01
 -1        64 5.77099E+01
 -1        65 6.98535E+01
 -1        66 5.57309E+01
 -1        67 6.98535E+01
 -1        68 5.57309E+01
 -1        69 7.26038E+01
 -1        70 5.17905E+01
 -1        71 7.26038E+01
 -1        72 5.17905E+01
 -1        73 7.26038E+01
 -1        74 4.77557E+01
 -1        75 7.26038E+01
 -1        76 4.77557E+01
 -1        77 7.39846E+01
 -1        78 7.39846E+01
 -1        79 7.39846E+01
 -1        80 7.39846E+01
 -1        81 7.39846E+01
 -1        82 7.39846E+01
 -1        83 7.39846E+01
 -1        84 7.39846E+01
 -1        85 6.41052E+01
 -1        86 6.41052E+01
 -1        87 6.41052E+01
 -1        88 6.41052E+01
 -1        89 6.07766E+01
 -1        90 6.07766E+01
 -1        91 6.01185E+01
 -1        92 6.01185E+01
 -1        93 5.67913E+01
 -1        94 5.67913E+01
 -1        95 4.78770E+01
 -1        96 4.78770E+01
 -1        97 3.42035E+01
 -1        98 3.42035E+01
 -1        99 6.43408E+01
 -1       100 6.43408E+01
 -1       101 6.68633E+01
 -1       102 6.68633E+01
 -1       103 6.68633E+01
 -1       104 6.68633E+01
 -1       105 6.49330E+01
 -1       106 6.49330E+01
 -1       107 6.30361E+01
 -1       108 6.30361E+01
 -1       109 6.21065E+01
 -1       110 6.21065E+01
 -1       111 6.39574E+01
 -1       112 6.39574E+01
 -1       113 6.59516E+01
 -1       114 6.59516E+01
 -1       115 6.77177E+01
 -1       116 6.77177E+01
 -1       117 6.98535E+01
 -1       118 6.98535E+01
 -1       119 7.26038E+01
 -1       120 7.26038E+01
 -1       121 7.26038E+01
 -1       122 7.26038E+01
 -1       123 4.73265E+01
 -1       124 4.73265E+01
 -1       125 4.73265E+01
 -1       126 4.73265E+01
 -3
    1PSTEP                        45          12           3          
  100CL  112 3.20000E-01         126                     1   12           1
 -4  DISP        4    1
 -5  D1          1    2    1    0
 -5  D2          1    2    2    0
 -5  D3          1    2    3    0
 -5  ALL         1    2    0    0    1ALL
 -1         1 0.00000E+00 0.00000E+00 0.00000E+00
 -1         2 0.00000E+00 0.00000E+00 0.00000E+00
 -1         3 8.84647E-04 0.00000E+00 2.38939E-05
 -1         4 1.19273E-03 0.00000E+00-1.36752E-03
 -1         5 0.00000E+00 0.00000E+00 0.00000E+00
 -1         6 0.00000E+00 0.00000E+00 0.00000E+00
 -1         7 8.84606E-04 0.00000E+00 2.38746E-05
 -1         8 1.19270E-03 0.00000E+00-1.36750E-03
 -1         9 3.25370E-03 0.00000E+00 2.05154E-05
 -1        10 3.36785E-03 0.00000E+00-2.55242E-03
 -1        11 3.25367E-03 0.00000E+00 2.05152E-05
 -1        12 3.36775E-03 0.00000E+00-2.55240E-03
 -1        13 6.58359E-03 0.00000E+00-4.11250E-05
 -1        14 6.60574E-03 0.00000E+00-3.47968E-03
 -1        15 6.58360E-03 0.00000E+00-4.11241E-05
 -1        16 6.60570E-03 0.00000E+00-3.47967E-03
 -1        17 1.06327E-02 0.00000E+00-1.61519E-04
 -1        18 1.05536E-02 0.00000E+00-4.18456E-03
 -1        19 1.06327E-02 0.00000E+00-1.61522E-04
 -1        20 1.05535E-02 0.00000E+00-4.18455E-03
 -1        21 1.51109E-02 0.00000E+00-3.24463E-04
 -1        22 1.49548E-02 0.00000E+00-4.66707E-03
 -1        23 1.51108E-02 0.00000E+00-3.24452E-04
 -1        24 1.49547E-02 0.00000E+00-4.66705E-03
 -1        25 1.97556E-02 0.00000E+00-5.10062E-04
 -1        26 1.95489E-02 0.00000E+00-4.93646E-03
 -1        27 1.97556E-02 0.00000E+00-5.10059E-04
 -1        28 1.95488E-02 0.00000E+00-4.93646E-03
 -1        29 2.43446E-02 0.00000E+00-6.98808E-04
 -1        30 2.41120E-02 0.00000E+00-5.00979E-03
 -1        31 2.43446E-02 0.00000E+00-6.98835E-04
 -1        32 2.41119E-02 0.00000E+00-5.00978E-03
 -1        33 2.87010E-02 0.00000E+00-8.74149E-04
 -1        34 2.84621E-02 0.00000E+00-4.90659E-03
 -1        35 2.87009E-02 0.00000E+00-8.74169E-04
 -1        36 2.84620E-02 0.00000E+00-4.90659E-03
 -1        37 3.26778E-02 0.00000E+00-1.02462E-03
 -1        38 3.24475E-02 0.00000E+00-4.64464E-03
 -1        39 3.26777E-02 0.00000E+00-1.02462E-03
 -1        40 3.24474E-02 0.00000E+00-4.64469E-03
 -1        41 3.61418E-02 0.00000E+00-1.14226E-03
 -1        42 3.59309E-02 0.00000E+00-4.24959E-03
 -1        43 3.61419E-02 0.00000E+00-1.14226E-03
 -1        44 3.59308E-02 0.00000E+00-4.24962E-03
 -1        45 3.90069E-02 0.00000E+00-1.22383E-03
 -1        46 3.88215E-02 0.00000E+00-3.76511E-03
 -1        47 3.90069E-02 0.00000E+00-1.22382E-03
 -1        48 3.88214E-02 0.00000E+00-3.76511E-03
 -1        49 4.12580E-02 0.00000E+00-1.27274E-03
 -1        50 4.11000E-02 0.00000E+00-3.23888E-03
 -1        51 4.12580E-02 0.00000E+00-1.27271E-03
 -1        52 4.10999E-02 0.00000E+00-3.23888E-03
 -1        53 4.29093E-02 0.00000E+00-1.29636E-03
 -1        54 4.27781E-02 0.00000E+00-2.71032E-03
 -1        55 4.29093E-02 0.00000E+00-1.29633E-03
 -1        56 4.27780E-02 0.00000E+00-2.71031E-03
 -1        57 4.39970E-02 0.00000E+00-1.30376E-03
 -1        58 4.38925E-02 0.00000E+00-2.21740E-03
 -1        59 4.39969E-02 0.00000E+00-1.30373E-03
 -1        60 4.38925E-02 0.00000E+00-2.21744E-03
 -1        61 4.45876E-02 0.00000E+00-1.30294E-03
 -1        62 4.45110E-02 0.00000E+00-1.79625E-03
 -1        63 4.45876E-02 0.00000E+00-1.30292E-03
 -1        64 4.45110E-02 0.00000E+00-1.79632E-03
 -1        65 4.47932E-02 0.00000E+00-1.29757E-03
 -1        66 4.47420E-02 0.00000E+00-1.47473E-03
 -1        67 4.47931E-02 0.00000E+00-1.29753E-03
 -1        68 4.47420E-02 0.00000E+00-1.47470E-03
 -1        69 4.47462E-02 0.00000E+00-1.29154E-03
 -1        70 4.47186E-02 0.00000E+00-1.26215E-03
 -1        71 4.47461E-02 0.00000E+00-1.29154E-03
 -1        72 4.47186E-02 0.00000E+00-1.26222E-03
 -1        73 4.45665E-02 0.00000E+00-1.28662E-03
 -1        74 4.45515E-02 0.00000E+00-1.13596E-03
 -1        75 4.45664E-02 0.00000E+00-1.28661E-03
 -1        76 4.45515E-02 0.00000E+00-1.13596E-03
 -1        77 4.43281E-02 0.00000E+00-1.27712E-03
 -1        78 4.43391E-02 0.00000E+00-1.07539E-03
 -1        79 4.43281E-02 0.00000E+00-1.27708E-03
 -1        80 4.43391E-02 0.00000E+00-1.07547E-03
 -1        81 4.41031E-02 0.00000E+00-1.27294E-03
 -1        82 4.40506E-02 0.00000E+00-1.02834E-03
 -1        83 4.41032E-02 0.00000E+00-1.27291E-03
 -1        84 4.40504E-02 0.00000E+00-1.02842E-03
 -1        85 0.00000E+00 0.00000E+00 0.00000E+00
 -1        86 1.28783E-03 0.00000E+00 1.40383E-03
 -1        87 0.00000E+00 0.00000E+00 0.00000E+00
 -1        88 1.28791E-03 0.00000E+00 1.40386E-03
 -1        89 3.55827E-03 0.00000E+00 2.56630E-03
 -1        90 3.55838E-03 0.00000E+00 2.56636E-03
 -1        91 6.88852E-03 0.00000E+00 3.36743E-03
 -1        92 6.88867E-03 0.00000E+00 3.36747E-03
 -1        93 1.09159E-02 0.00000E+00 3.83893E-03
 -1        94 1.09160E-02 0.00000E+00 3.83892E-03
 -1        95 1.53640E-02 0.00000E+00 4.00458E-03
 -1        96 1.53641E-02 0.00000E+00 4.00456E-03
 -1        97 1.99655E-02 0.00000E+00 3.91229E-03
 -1        98 1.99656E-02 0.00000E+00 3.91227E-03
 -1        99 2.45027E-02 0.00000E+00 3.61633E-03
 -1       100 2.45028E-02 0.00000E+00 3.61627E-03
 -1       101 2.88014E-02 0.00000E+00 3.16765E-03
 -1       102 2.88015E-02 0.00000E+00 3.16760E-03
 -1       103 3.27183E-02 0.00000E+00 2.60775E-03
 -1       104 3.27185E-02 0.00000E+00 2.60775E-03
 -1       105 3.61294E-02 0.00000E+00 1.97856E-03
 -1       106 3.61295E-02 0.00000E+00 1.97857E-03
 -1       107 3.89558E-02 0.00000E+00 1.32943E-03
 -1       108 3.89559E-02 0.00000E+00 1.32940E-03
 -1       109 4.11829E-02 0.00000E+00 7.01928E-04
 -1       110 4.11830E-02 0.00000E+00 7.01909E-04
 -1       111 4.28235E-02 0.00000E+00 1.21975E-04
 -1       112 4.28236E-02 0.00000E+00 1.21989E-04
 -1       113 4.39131E-02 0.00000E+00-3.90329E-04
 -1       114 4.39133E-02 0.00000E+00-3.90326E-04
 -1       115 4.45165E-02 0.00000E+00-8.11778E-04
 -1       116 4.45166E-02 0.00000E+00-8.11791E-04
 -1       117 4.47444E-02 0.00000E+00-1.12248E-03
 -1       118 4.47445E-02 0.00000E+00-1.12255E-03
 -1       119 4.47191E-02 0.00000E+00-1.32123E-03
 -1       120 4.47192E-02 0.00000E+00-1.32123E-03
 -1       121 4.45509E-02 0.00000E+00-1.42858E-03
 -1       122 4.45509E-02 0.00000E+00-1.42853E-03
 -1       123 4.43415E-02 0.00000E+00-1.46964E-03
 -1       124 4.43415E-02 0.00000E+00-1.46957E-03
 -1       125 4.40520E-02 0.00000E+00-1.47465E-03
 -1       126 4.40520E-02 0.00000E+00-1.47471E-03
 -3
    1PSTEP                        46          12           3          
  100CL  112 3.20000E-01         126                     1   12           1
 -4  STRESS      6    1
 -5  SXX         1    4    1    1
 -5  SYY         1    4    2    2
 -5  SZZ         1    4    3    3
 -5  SXY         1    4    1    2
 -5  SYZ         1    4    2    3
 -5  SZX         1    4    3    1
 -1         1-6.18880E+03-6.33215E+03-1.41343E+04 7.89191E-05-7.09981E-05 3.35688E+03
 -1         2 2.12452E+02 1.46345E+02 1.82781E+02-5.29781E-05-9.40694E-05 2.72248E+03
 -1         3 2.38290E+01 5.83577E+01 1.41224E+02-2.08641E-02-1.01259E-02 7.42664E+02
 -1         4-2.13959E+03-4.23655E+03-1.15313E+04-1.34384E-02 8.51031E-03 7.25295E+02
 -1         5-6.18873E+03-6.33207E+03-1.41341E+04 7.89196E-05-7.09966E-05 3.35681E+03
 -1         6 2.12346E+02 1.46253E+02 1.82563E+02-5.29879E-05-9.40707E-05 2.72234E+03
 -1         7 2.32327E+01 5.80940E+01 1.40960E+02-2.08640E-02-1.01259E-02 7.42587E+02
 -1         8-2.13942E+03-4.23646E+03-1.15312E+04-1.34385E-02 8.51032E-03 7.25267E+02
 -1         9 4.88564E+01 9.66684E+01 2.32361E+02-1.72557E-02-2.35790E-04 8.97289E+02
 -1        10-2.52338E+03-3.69961E+03-9.49897E+03-4.74708E-02 8.10546E-03 2.14090E+02
 -1        11 4.78865E+01 9.62786E+01 2.32041E+02-1.72556E-02-2.35796E-04 8.97329E+02
 -1        12-2.52404E+03-3.69991E+03-9.49929E+03-4.74707E-02 8.10544E-03 2.14134E+02
 -1        13 9.56772E+01 1.02586E+02 2.32156E+02 9.82240E-03 4.85796E-04 8.24420E+02
 -1        14-1.57318E+03-2.51479E+03-6.65774E+03-1.79407E-02 5.43219E-03 2.86714E+02
 -1        15 9.47104E+01 1.02168E+02 2.31733E+02 9.82236E-03 4.85799E-04 8.24442E+02
 -1        16-1.57378E+03-2.51505E+03-6.65802E+03-1.79407E-02 5.43218E-03 2.86773E+02
 -1        17 1.12748E+02 9.59599E+01 2.04267E+02-2.52667E-03-1.82235E-03 7.81533E+02
 -1        18-9.55892E+02-1.54650E+03-4.13750E+03-4.03927E-02 6.64308E-03 3.30770E+02
 -1        19 1.11588E+02 9.54740E+01 2.03810E+02-2.52666E-03-1.82235E-03 7.81492E+02
 -1        20-9.56721E+02-1.54685E+03-4.13784E+03-4.03925E-02 6.64308E-03 3.30725E+02
 -1        21 1.10763E+02 8.28076E+01 1.68170E+02-1.89776E-02 5.67307E-03 6.99957E+02
 -1        22-3.58321E+02-6.45879E+02-1.77853E+03-5.66617E-02 8.20219E-03 4.13158E+02
 -1        23 1.09566E+02 8.22976E+01 1.67670E+02-1.89775E-02 5.67306E-03 7.00003E+02
 -1        24-3.59144E+02-6.46251E+02-1.77894E+03-5.66615E-02 8.20217E-03 4.13191E+02
 -1        25 9.99556E+01 6.54728E+01 1.21951E+02-1.37172E-02 1.16813E-03 5.96175E+02
 -1        26 1.51220E+02 1.29574E+02 2.86915E+02-4.02303E-02-2.34168E-05 4.76694E+02
 -1        27 9.89668E+01 6.49958E+01 1.21350E+02-1.37171E-02 1.16812E-03 5.96264E+02
 -1        28 1.50674E+02 1.29333E+02 2.86656E+02-4.02302E-02-2.34351E-05 4.76766E+02
 -1        29 7.81246E+01 4.38063E+01 6.91118E+01-4.04496E-03-1.41509E-02 4.92785E+02
 -1        30 5.66271E+02 7.69890E+02 2.01879E+03-3.42686E-02 5.13041E-03 5.16638E+02
 -1        31 7.70725E+01 4.33179E+01 6.85365E+01-4.04495E-03-1.41509E-02 4.92875E+02
 -1        32 5.65602E+02 7.69593E+02 2.01847E+03-3.42685E-02 5.13038E-03 5.16701E+02
 -1        33 5.48895E+01 2.27441E+01 1.80556E+01-2.63105E-02-1.04254E-02 3.97849E+02
 -1        34 8.97961E+02 1.29091E+03 3.44805E+03-6.25936E-02-1.06966E-03 5.27126E+02
 -1        35 5.36776E+01 2.22580E+01 1.76453E+01-2.63104E-02-1.04254E-02 3.97950E+02
 -1        36 8.97066E+02 1.29046E+03 3.44741E+03-6.25934E-02-1.06967E-03 5.27173E+02
 -1        37 3.56053E+01 6.34389E+00-2.14129E+01-8.20710E-03 5.73322E-04 2.87939E+02
 -1        38 1.15133E+03 1.69984E+03 4.58575E+03-4.08739E-02-2.35516E-02 4.84049E+02
 -1        39 3.45251E+01 5.91405E+00-2.17675E+01-8.20706E-03 5.73320E-04 2.88008E+02
 -1        40 1.15063E+03 1.69951E+03 4.58535E+03-4.08738E-02-2.35516E-02 4.84046E+02
 -1        41 1.51777E+01-3.58395E+00-3.73925E+01 1.12749E-02 3.82948E-04 1.53146E+02
 -1        42 1.30676E+03 1.96863E+03 5.34879E+03-1.93732E-02-1.68810E-02 3.76730E+02
 -1        43 1.42251E+01-3.97886E+00-3.77580E+01 1.12748E-02 3.82946E-04 1.53066E+02
 -1        44 1.30625E+03 1.96848E+03 5.34881E+03-1.93731E-02-1.68810E-02 3.76589E+02
 -1        45-2.52103E+00-5.49804E+00-2.83863E+01-2.07555E-02 4.22941E-03 3.17061E+01
 -1        46 1.36254E+03 2.08183E+03 5.68027E+03-5.82379E-02 2.45167E-03 2.46249E+02
 -1        47-3.63332E+00-5.94078E+00-2.87577E+01-2.07554E-02 4.22941E-03 3.16977E+01
 -1        48 1.36183E+03 2.08157E+03 5.68011E+03-5.82377E-02 2.45169E-03 2.46199E+02
 -1        49-8.21464E+00-1.96796E-01-5.03930E+00-1.34762E-02 1.34682E-02-5.97580E+01
 -1        50 1.34168E+03 2.06359E+03 5.63834E+03-3.66151E-02 2.35096E-04 1.22782E+02
 -1        51-9.17250E+00-5.78059E-01-5.35565E+00-1.34761E-02 1.34682E-02-5.97007E+01
 -1        52 1.34123E+03 2.06340E+03 5.63816E+03-3.66150E-02 2.35094E-04 1.22793E+02
 -1        53-7.38544E+00 5.74724E+00 1.58024E+01-1.62208E-02 1.53107E-02-1.43766E+02
 -1        54 1.25421E+03 1.93389E+03 5.28148E+03-2.98155E-02 3.28354E-03 1.29777E+00
 -1        55-8.15061E+00 5.41554E+00 1.54586E+01-1.62207E-02 1.53107E-02-1.43758E+02
 -1        56 1.25385E+03 1.93369E+03 5.28115E+03-2.98154E-02 3.28354E-03 1.27086E+00
 -1        57-4.63520E-01 1.06837E+01 2.82883E+01-9.21644E-03 1.12605E-02-2.28884E+02
 -1        58 1.11047E+03 1.70082E+03 4.62842E+03-2.19248E-02-2.07327E-02-1.15780E+02
 -1        59-1.44700E+00 1.02487E+01 2.78189E+01-9.21640E-03 1.12605E-02-2.28948E+02
 -1        60 1.11003E+03 1.70053E+03 4.62788E+03-2.19248E-02-2.07326E-02-1.15945E+02
 -1        61 2.01293E+01 2.15829E+01 4.69784E+01-1.73075E-02 8.96888E-03-2.89712E+02
 -1        62 9.23157E+02 1.37976E+03 3.72182E+03-2.06080E-02-3.83809E-02-2.00510E+02
 -1        63 1.97245E+01 2.14297E+01 4.68680E+01-1.73075E-02 8.96889E-03-2.89785E+02
 -1        64 9.23257E+02 1.37990E+03 3.72220E+03-2.06080E-02-3.83809E-02-2.00731E+02
 -1        65 1.85410E+01 2.29926E+01 5.56912E+01-2.77311E-03 1.83069E-02-2.98099E+02
 -1        66 6.85208E+02 9.97905E+02 2.66533E+03-6.86273E-04 1.64504E-02-2.24838E+02
 -1        67 1.79159E+01 2.27047E+01 5.53525E+01-2.77308E-03 1.83069E-02-2.97917E+02
 -1        68 6.85253E+02 9.97924E+02 2.66536E+03-6.86281E-04 1.64504E-02-2.24764E+02
 -1        69 2.53293E+01 2.50042E+01 5.71448E+01-1.30889E-02 8.44234E-04-2.57894E+02
 -1        70 4.86435E+02 6.54769E+02 1.70640E+03 7.01365E-03-3.79361E-02-2.04558E+02
 -1        71 2.47525E+01 2.47348E+01 5.68244E+01-1.30889E-02 8.44248E-04-2.58096E+02
 -1        72 4.86799E+02 6.54891E+02 1.70644E+03 7.01372E-03-3.79361E-02-2.04848E+02
 -1        73 4.29608E+01 3.78809E+01 8.32401E+01-3.02666E-02 9.58333E-03-1.93131E+02
 -1        74 2.74473E+02 3.64375E+02 9.43352E+02-1.94531E-02 3.47121E-03-1.21976E+02
 -1        75 4.25357E+01 3.77390E+01 8.31913E+01-3.02666E-02 9.58335E-03-1.93210E+02
 -1        76 2.74676E+02 3.64450E+02 9.43399E+02-1.94531E-02 3.47122E-03-1.21939E+02
 -1        77 2.63080E+01 3.03797E+01 7.48134E+01-1.85817E-02 1.63768E-02-1.06457E+02
 -1        78 3.74873E+02 3.03456E+02 6.38273E+02 3.13763E-02-4.25245E-02-1.51094E+02
 -1        79 2.63337E+01 3.03953E+01 7.48398E+01-1.85817E-02 1.63768E-02-1.06536E+02
 -1        80 3.75712E+02 3.03692E+02 6.38223E+02 3.13764E-02-4.25246E-02-1.51664E+02
 -1        81 1.99547E+01 2.05354E+01 4.92504E+01 1.93969E-02 1.15997E-02-5.94042E+00
 -1        82-3.36180E+02-1.85349E+01 2.75318E+02-9.16297E-02-4.38724E-02-1.36510E+02
 -1        83 1.90295E+01 2.01128E+01 4.87697E+01 1.93968E-02 1.15996E-02-5.75981E+00
 -1        84-3.38509E+02-1.95441E+01 2.74289E+02-9.16288E-02-4.38717E-02-1.37583E+02
 -1        85 6.64071E+03 6.46447E+03 1.57811E+04 2.29521E-04 2.08390E-04 4.32078E+03
 -1        86 2.06359E+03 4.31026E+03 1.28203E+04 4.46629E-02 1.99855E-02 1.44120E+03
 -1        87 6.64090E+03 6.46464E+03 1.57816E+04 2.29570E-04 2.08400E-04 4.32107E+03
 -1        88 2.06241E+03 4.30984E+03 1.28201E+04 4.46627E-02 1.99855E-02 1.44119E+03
 -1        89 2.43019E+03 3.78607E+03 1.05590E+04 5.27723E-02 3.15937E-02 1.02693E+03
 -1        90 2.42879E+03 3.78548E+03 1.05585E+04 5.27719E-02 3.15936E-02 1.02685E+03
 -1        91 1.66577E+03 2.68718E+03 7.48831E+03 7.51106E-02 1.92284E-02 1.05938E+03
 -1        92 1.66431E+03 2.68649E+03 7.48744E+03 7.51101E-02 1.92284E-02 1.05934E+03
 -1        93 1.10336E+03 1.72787E+03 4.74378E+03 7.01824E-02 4.90728E-05 8.94146E+02
 -1        94 1.10172E+03 1.72711E+03 4.74284E+03 7.01818E-02 4.90586E-05 8.94105E+02
 -1        95 5.19659E+02 8.10686E+02 2.20902E+03 5.76053E-02-9.05751E-03 6.84633E+02
 -1        96 5.17990E+02 8.09941E+02 2.20820E+03 5.76048E-02-9.05746E-03 6.84684E+02
 -1        97 1.72755E+00 4.74406E+00 2.03896E+01 4.68777E-02-9.65604E-03 4.55612E+02
 -1        98 3.52999E-01 4.09293E+00 1.95960E+01 4.68774E-02-9.65599E-03 4.55705E+02
 -1        99-4.50728E+02-6.82092E+02-1.80874E+03 5.89279E-02-3.10381E-02 2.56563E+02
 -1       100-4.52138E+02-6.82754E+02-1.80953E+03 5.89275E-02-3.10379E-02 2.56724E+02
 -1       101-8.26924E+02-1.25132E+03-3.30606E+03 5.77986E-02-2.81941E-02 1.00583E+02
 -1       102-8.28560E+02-1.25195E+03-3.30652E+03 5.77981E-02-2.81940E-02 1.00771E+02
 -1       103-1.11407E+03-1.69616E+03-4.47175E+03 7.01983E-02 2.26120E-04-2.63886E+01
 -1       104-1.11557E+03-1.69672E+03-4.47212E+03 7.01978E-02 2.26166E-04-2.63006E+01
 -1       105-1.30570E+03-1.98848E+03-5.22987E+03 7.31884E-02 3.44917E-03-1.28963E+02
 -1       106-1.30708E+03-1.98911E+03-5.23057E+03 7.31880E-02 3.44914E-03-1.29015E+02
 -1       107-1.39553E+03-2.11091E+03-5.53757E+03 5.13117E-02-1.29852E-02-1.85772E+02
 -1       108-1.39714E+03-2.11164E+03-5.53839E+03 5.13113E-02-1.29851E-02-1.85690E+02
 -1       109-1.38517E+03-2.08514E+03-5.46498E+03 5.92300E-02-9.70649E-03-2.03533E+02
 -1       110-1.38663E+03-2.08572E+03-5.46546E+03 5.92296E-02-9.70643E-03-2.03404E+02
 -1       111-1.29481E+03-1.94456E+03-5.09959E+03 4.19270E-02 6.97393E-03-2.14409E+02
 -1       112-1.29599E+03-1.94504E+03-5.10000E+03 4.19268E-02 6.97395E-03-2.14320E+02
 -1       113-1.13000E+03-1.69573E+03-4.45517E+03 6.89788E-02 1.65136E-03-2.32655E+02
 -1       114-1.13172E+03-1.69651E+03-4.45602E+03 6.89783E-02 1.65136E-03-2.32652E+02
 -1       115-8.90059E+02-1.34201E+03-3.54043E+03 2.09435E-02-6.57770E-03-2.42047E+02
 -1       116-8.91063E+02-1.34255E+03-3.54121E+03 2.09434E-02-6.57768E-03-2.41992E+02
 -1       117-6.46712E+02-9.48971E+02-2.49483E+03 5.52732E-02-3.91344E-02-2.27944E+02
 -1       118-6.47898E+02-9.49459E+02-2.49526E+03 5.52728E-02-3.91342E-02-2.27490E+02
 -1       119-4.13251E+02-5.81108E+02-1.51537E+03 5.80846E-02 2.08469E-03-2.04658E+02
 -1       120-4.14462E+02-5.81464E+02-1.51535E+03 5.80842E-02 2.08466E-03-2.04748E+02
 -1       121-1.69161E+02-2.67744E+02-7.21238E+02 2.76213E-02 2.42068E-02-1.42811E+02
 -1       122-1.70236E+02-2.68124E+02-7.21430E+02 2.76211E-02 2.42068E-02-1.42986E+02
 -1       123-2.41085E+02-1.63226E+02-3.02219E+02 2.93424E-02 3.36537E-02-1.74722E+02
 -1       124-2.42327E+02-1.63894E+02-3.03203E+02 2.93422E-02 3.36536E-02-1.74932E+02
 -1       125 5.39386E+02 2.18485E+02 1.90531E+02-7.91041E-03-2.82428E-02-2.69934E+02
 -1       126 5.39409E+02 2.18178E+02 1.89482E+02-7.91038E-03-2.82427E-02-2.69916E+02
 -3
    1PSTEP                        47          12           3          
  100CL  112 3.20000E-01         126                     1   12           1
 -4  TOSTRAIN    6    1
 -5  EXX         1    4    1    1
 -5  EYY         1    4    2    2
 -5  EZZ         1    4    3    3
 -5  EXY         1    4    1    2
 -5  EYZ         1    4    2    3
 -5  EZX         1    4    3    1
 -1         1-6.78062E-05-6.80768E-16-2.67589E-02 1.81677E-10 1.53554E-13 1.19271E-02
 -1         2-6.82833E-05-2.42241E-16 5.66187E-04-1.59343E-10-2.51374E-13 8.84629E-03
 -1         3-5.98669E-04 1.36462E-15 7.87179E-04-6.64757E-08-3.44938E-08 2.39336E-03
 -1         4 6.50994E-03 2.15479E-15-2.46386E-02-4.47078E-08 2.73293E-08 3.38389E-03
 -1         5-6.78031E-05-6.80768E-16-2.67586E-02 1.81676E-10 1.53554E-13 1.19269E-02
 -1         6-6.82860E-05-2.42241E-16 5.65783E-04-1.59357E-10-2.51374E-13 8.84588E-03
 -1         7-5.99789E-04 1.36462E-15 7.87171E-04-6.64756E-08-3.44938E-08 2.39308E-03
 -1         8 6.51021E-03 2.15479E-15-2.46384E-02-4.47078E-08 2.73293E-08 3.38378E-03
 -1         9-6.19429E-04-6.91246E-15 9.84335E-04-5.57101E-08-3.56530E-09 2.86338E-03
 -1        10 3.57276E-03 4.24323E-14-1.94098E-02-1.55922E-07 1.89082E-08 1.94081E-03
 -1        11-6.21354E-04-6.91246E-15 9.84575E-04-5.57100E-08-3.56533E-09 2.86341E-03
 -1        12 3.57156E-03 4.24323E-14-1.94099E-02-1.55922E-07 1.89082E-08 1.94090E-03
 -1        13-4.92688E-04-8.87165E-15 9.11460E-04 3.19036E-08 3.78111E-09 2.61752E-03
 -1        14 2.78922E-03 2.22680E-15-1.35970E-02-5.94729E-08 1.37780E-08 2.12027E-03
 -1        15-4.94478E-04-8.87165E-15 9.11443E-04 3.19036E-08 3.78112E-09 2.61748E-03
 -1        16 2.78812E-03 2.22680E-15-1.35971E-02-5.94728E-08 1.37780E-08 2.12040E-03
 -1        17-4.03078E-04-1.25292E-14 8.07961E-04-7.54508E-09-6.48115E-09 2.47809E-03
 -1        18 1.64771E-03 2.87587E-14-8.31279E-03-1.32733E-07 1.11720E-08 1.92640E-03
 -1        19-4.05236E-04-1.25292E-14 8.08016E-04-7.54507E-09-6.48115E-09 2.47778E-03
 -1        20 1.64621E-03 2.87587E-14-8.31280E-03-1.32732E-07 1.11721E-08 1.92612E-03
 -1        21-3.25414E-04-5.50008E-15 6.81386E-04-6.30431E-08 1.30208E-08 2.22039E-03
 -1        22 6.53087E-04 6.32452E-14-3.44270E-03-1.85897E-07 1.06514E-08 1.73621E-03
 -1        23-3.27663E-04-5.50008E-15 6.81425E-04-6.30430E-08 1.30208E-08 2.22035E-03
 -1        24 6.51613E-04 6.32452E-14-3.44283E-03-1.85897E-07 1.06514E-08 1.73620E-03
 -1        25-2.43377E-04-4.44927E-15 5.26373E-04-4.47457E-08-1.60307E-10 1.89802E-03
 -1        26-2.08183E-04 3.11526E-14 7.72902E-04-1.30191E-07-1.16464E-08 1.48411E-03
 -1        27-2.45086E-04-4.44927E-15 5.26014E-04-4.47456E-08-1.60316E-10 1.89820E-03
 -1        28-2.09208E-04 3.11526E-14 7.72879E-04-1.30191E-07-1.16465E-08 1.48426E-03
 -1        29-1.80539E-04-6.55121E-15 3.67898E-04-9.03320E-09-4.69138E-08 1.57840E-03
 -1        30-9.26533E-04 1.94454E-14 4.27325E-03-1.12362E-07 6.97204E-09 1.23623E-03
 -1        31-1.82412E-04-6.55121E-15 3.67653E-04-9.03321E-09-4.69138E-08 1.57856E-03
 -1        32-9.27773E-04 1.94454E-14 4.27319E-03-1.12362E-07 6.97209E-09 1.23633E-03
 -1        33-1.30164E-04-3.70799E-17 2.22375E-04-8.25078E-08-4.06108E-08 1.28471E-03
 -1        34-1.51728E-03 7.50533E-14 7.13585E-03-2.02240E-07-1.96579E-08 1.00706E-03
 -1        35-1.32548E-04-3.70799E-17 2.22652E-04-8.25076E-08-4.06108E-08 1.28483E-03
 -1        36-1.51872E-03 7.50533E-14 7.13529E-03-2.02239E-07-1.96579E-08 1.00715E-03
 -1        37-8.01050E-05-1.34104E-14 9.67235E-05-2.68716E-08-1.00867E-10 9.38796E-04
 -1        38-1.98020E-03 3.84413E-14 9.38675E-03-1.26661E-07-8.49648E-08 7.33561E-04
 -1        39-8.22317E-05-1.34104E-14 9.69851E-05-2.68715E-08-1.00879E-10 9.38847E-04
 -1        40-1.98139E-03 3.84413E-14 9.38651E-03-1.26660E-07-8.49649E-08 7.33483E-04
 -1        41-5.10816E-05-8.56838E-15 2.10205E-05 3.63617E-08 3.36630E-09 5.04325E-04
 -1        42-2.28922E-03 5.28528E-15 1.08733E-02-5.93368E-08-5.80390E-08 3.88782E-04
 -1        43-5.28584E-05-8.56838E-15 2.10819E-05 3.63616E-08 3.36629E-09 5.03948E-04
 -1        44-2.29037E-03 5.28528E-15 1.08738E-02-5.93367E-08-5.80390E-08 3.88228E-04
 -1        45-5.29000E-05-4.52988E-15 1.28243E-05-6.82419E-08 1.02607E-08 1.06881E-04
 -1        46-2.42110E-03 6.29419E-14 1.15018E-02-1.89119E-07-1.74732E-09 7.99866E-05
 -1        47-5.50497E-05-4.52988E-15 1.30511E-05-6.82418E-08 1.02607E-08 1.06731E-04
 -1        48-2.42256E-03 6.29419E-14 1.15021E-02-1.89119E-07-1.74725E-09 7.97372E-05
 -1        49-6.05187E-05-3.93984E-15 4.37358E-05-4.56199E-08 4.20522E-08-1.93851E-04
 -1        50-2.39270E-03 2.50564E-14 1.13935E-02-1.18739E-07-3.90717E-09-1.48405E-04
 -1        51-6.23951E-05-3.93984E-15 4.39560E-05-4.56198E-08 4.20522E-08-1.93749E-04
 -1        52-2.39358E-03 2.50564E-14 1.13935E-02-1.18739E-07-3.90723E-09-1.48408E-04
 -1        53-6.06001E-05 3.91846E-15 7.15302E-05-5.41641E-08 4.82276E-08-4.68474E-04
 -1        54-2.23136E-03 1.68189E-14 1.06633E-02-9.69908E-08 7.74358E-09-3.58052E-04
 -1        55-6.19976E-05 3.91846E-15 7.14874E-05-5.41640E-08 4.82276E-08-4.68491E-04
 -1        56-2.23187E-03 1.68189E-14 1.06629E-02-9.69908E-08 7.74354E-09-3.58150E-04
 -1        57-4.47242E-05-8.33541E-15 8.02002E-05-3.06792E-08 3.59515E-08-7.44902E-04
 -1        58-1.92702E-03 1.34994E-14 9.33780E-03-6.99910E-08-6.80104E-08-5.73204E-04
 -1        59-4.64904E-05-8.33541E-15 8.00770E-05-3.06792E-08 3.59515E-08-7.45142E-04
 -1        60-1.92749E-03 1.34994E-14 9.33699E-03-6.99909E-08-6.80104E-08-5.73733E-04
 -1        61-9.90608E-06 1.38274E-15 9.63406E-05-5.65255E-08 2.85016E-08-9.41842E-04
 -1        62-1.48711E-03 2.58383E-14 7.49354E-03-6.58308E-08-1.24341E-07-7.28912E-04
 -1        63-1.07116E-05 1.38274E-15 9.64788E-05-5.65255E-08 2.85016E-08-9.42087E-04
 -1        64-1.48722E-03 2.58383E-14 7.49426E-03-6.58306E-08-1.24341E-07-7.29627E-04
 -1        65-2.01412E-05-4.37978E-15 1.16007E-04-9.15269E-09 5.95860E-08-9.68878E-04
 -1        66-1.01940E-03-4.44769E-15 5.35875E-03-2.33122E-09 5.30917E-08-7.44141E-04
 -1        67-2.12351E-05-4.37978E-15 1.15850E-04-9.15263E-09 5.95860E-08-9.68295E-04
 -1        68-1.01932E-03-4.44769E-15 5.35875E-03-2.33127E-09 5.30917E-08-7.43914E-04
 -1        69-5.17086E-06-8.98817E-15 1.11946E-04-4.25559E-08 2.69326E-09-8.37755E-04
 -1        70-5.51405E-04 1.57716E-14 3.39559E-03 2.25502E-08-1.22830E-07-6.56640E-04
 -1        71-6.16905E-06-8.98817E-15 1.11775E-04-4.25558E-08 2.69328E-09-8.38410E-04
 -1        72-5.50624E-04 1.57716E-14 3.39534E-03 2.25503E-08-1.22830E-07-6.57576E-04
 -1        73 1.07907E-05 1.45876E-14 1.52912E-04-9.82359E-08 3.14046E-08-6.26828E-04
 -1        74-2.95203E-04-3.15798E-15 1.87648E-03-6.31363E-08 1.14280E-08-3.87674E-04
 -1        75 9.87108E-06 1.45876E-14 1.53215E-04-9.82358E-08 3.14046E-08-6.27083E-04
 -1        76-2.94782E-04-3.15798E-15 1.87638E-03-6.31364E-08 1.14279E-08-3.87556E-04
 -1        77-1.60360E-05 7.52359E-16 1.47481E-04-6.01335E-08 5.34328E-08-3.45343E-04
 -1        78 2.26927E-04 1.17616E-14 1.08949E-03 1.01289E-07-1.38437E-07-4.85908E-04
 -1        79-1.60039E-05 7.52359E-16 1.47517E-04-6.01335E-08 5.34328E-08-3.45601E-04
 -1        80 2.28864E-04 1.17616E-14 1.08858E-03 1.01289E-07-1.38437E-07-4.87767E-04
 -1        81-3.78329E-06-1.54150E-14 9.35117E-05 6.32270E-08 3.74064E-08-1.83421E-05
 -1        82-1.03866E-03 1.26158E-13 9.57958E-04-2.98798E-07-1.41091E-07-4.33762E-04
 -1        83-5.41855E-06-1.54150E-14 9.33192E-05 6.32269E-08 3.74062E-08-1.77509E-05
 -1        84-1.04300E-03 1.26158E-13 9.57926E-04-2.98797E-07-1.41090E-07-4.37231E-04
 -1        85-6.87603E-05-5.27777E-15 2.87328E-02 4.74107E-10-8.77187E-14 1.28781E-02
 -1        86-7.70728E-03 2.86965E-14 2.66186E-02 1.42845E-07 6.68814E-08 3.49431E-03
 -1        87-6.87689E-05-5.27777E-15 2.87336E-02 4.74180E-10-8.77179E-14 1.28789E-02
 -1        88-7.70979E-03 2.86965E-14 2.66192E-02 1.42845E-07 6.68815E-08 3.49420E-03
 -1        89-4.81162E-03 5.58692E-14 2.14242E-02 1.65330E-07 1.08595E-07 1.87508E-03
 -1        90-4.81427E-03 5.58692E-14 2.14242E-02 1.65330E-07 1.08595E-07 1.87470E-03
 -1        91-3.77459E-03 1.08547E-13 1.55251E-02 2.38624E-07 7.76012E-08 2.04432E-03
 -1        92-3.77708E-03 1.08547E-13 1.55245E-02 2.38623E-07 7.76013E-08 2.04407E-03
 -1        93-2.45386E-03 8.48102E-14 9.98912E-03 2.27119E-07 1.82966E-08 1.87807E-03
 -1        94-2.45668E-03 8.48102E-14 9.98855E-03 2.27119E-07 1.82965E-08 1.87777E-03
 -1        95-1.30391E-03 5.01436E-14 4.83112E-03 1.89098E-07-1.30102E-08 1.69675E-03
 -1        96-1.30694E-03 5.01436E-14 4.83090E-03 1.89097E-07-1.30103E-08 1.69669E-03
 -1        97-2.78570E-04 3.39459E-14 3.02656E-04 1.54623E-07-1.77627E-08 1.44962E-03
 -1        98-2.80963E-04 3.39459E-14 3.02228E-04 1.54623E-07-1.77627E-08 1.44976E-03
 -1        99 5.65456E-04 7.83055E-14-3.51252E-03 1.99827E-07-8.43630E-08 1.20940E-03
 -1       100 5.62950E-04 7.83055E-14-3.51287E-03 1.99826E-07-8.43629E-08 1.20975E-03
 -1       101 1.25695E-03 6.03127E-14-6.65616E-03 1.94901E-07-7.68072E-08 9.85312E-04
 -1       102 1.25362E-03 6.03127E-14-6.65553E-03 1.94900E-07-7.68072E-08 9.85615E-04
 -1       103 1.81999E-03 8.07375E-14-9.12926E-03 2.27669E-07 1.74922E-08 7.18505E-04
 -1       104 1.81693E-03 8.07375E-14-9.12862E-03 2.27668E-07 1.74923E-08 7.18526E-04
 -1       105 2.18706E-03 9.85106E-14-1.07487E-02 2.36966E-07 2.62799E-08 3.85853E-04
 -1       106 2.18465E-03 9.85106E-14-1.07489E-02 2.36965E-07 2.62798E-08 3.85538E-04
 -1       107 2.31530E-03 3.84539E-14-1.14007E-02 1.68829E-07-3.41155E-08 8.67969E-05
 -1       108 2.31246E-03 3.84539E-14-1.14009E-02 1.68828E-07-3.41155E-08 8.69327E-05
 -1       109 2.27166E-03 5.44428E-14-1.12469E-02 1.93764E-07-2.41620E-08-1.40566E-04
 -1       110 2.26879E-03 5.44428E-14-1.12465E-02 1.93764E-07-2.41621E-08-1.40271E-04
 -1       111 2.11016E-03 2.39355E-14-1.04840E-02 1.35682E-07 2.69925E-08-3.53939E-04
 -1       112 2.10788E-03 2.39355E-14-1.04838E-02 1.35682E-07 2.69926E-08-3.53723E-04
 -1       113 1.83757E-03 7.36437E-14-9.14541E-03 2.24252E-07 9.60736E-09-5.69926E-04
 -1       114 1.83451E-03 7.36437E-14-9.14568E-03 2.24251E-07 9.60728E-09-5.69973E-04
 -1       115 1.46730E-03-2.86982E-15-7.25695E-03 6.82563E-08-2.08790E-08-7.13276E-04
 -1       116 1.46580E-03-2.86982E-15-7.25776E-03 6.82562E-08-2.08790E-08-7.13112E-04
 -1       117 9.79123E-04 6.82382E-14-5.07793E-03 1.79980E-07-1.27162E-07-7.28132E-04
 -1       118 9.76853E-04 6.82382E-14-5.07775E-03 1.79980E-07-1.27162E-07-7.26651E-04
 -1       119 5.41063E-04 4.91824E-14-3.05385E-03 1.88863E-07 6.67089E-09-6.72283E-04
 -1       120 5.38286E-04 4.91824E-14-3.05261E-03 1.88862E-07 6.67079E-09-6.72575E-04
 -1       121 3.16784E-04 1.35318E-14-1.47576E-03 9.00697E-08 7.85403E-08-4.71272E-04
 -1       122 3.14524E-04 1.35318E-14-1.47514E-03 9.00695E-08 7.85403E-08-4.71834E-04
 -1       123-2.58999E-04 2.63872E-14-4.47935E-04 9.59351E-08 1.09073E-07-5.69304E-04
 -1       124-2.60871E-04 2.63872E-14-4.48956E-04 9.59349E-08 1.09073E-07-5.69987E-04
 -1       125 1.03109E-03-3.21468E-15-8.37136E-05-2.62106E-08-9.16685E-08-8.80590E-04
 -1       126 1.03217E-03-3.21468E-15-8.61223E-05-2.62107E-08-9.16683E-08-8.80550E-04
 -3
    1PSTEP                        48          12           3          
  100CL  112 3.20000E-01         126                     1   12           1
 -4  ERROR       1    1
 -5  STR(%)      1    1    0    0
 -1         1 6.46290E+01
 -1         2 6.46290E+01
 -1         3 6.50366E+01
 -1         4 6.50366E+01
 -1         5 6.46290E+01
 -1         6 6.46290E+01
 -1         7 6.50366E+01
 -1         8 6.50366E+01
 -1         9 6.64238E+01
 -1        10 6.64238E+01
 -1        11 6.64238E+01
 -1        12 6.64238E+01
 -1        13 6.64238E+01
 -1        14 6.64238E+01
 -1        15 6.64238E+01
 -1        16 6.64238E+01
 -1        17 6.53875E+01
 -1        18 6.53875E+01
 -1        19 6.53875E+01
 -1        20 6.53875E+01
 -1        21 5.84613E+01
 -1        22 5.84613E+01
 -1        23 5.84613E+01
 -1        24 5.84613E+01
 -1        25 5.29054E+01
 -1        26 5.29054E+01
 -1        27 5.29054E+01
 -1        28 5.29054E+01
 -1        29 5.97874E+01
 -1        30 5.46972E+01
 -1        31 5.97874E+01
 -1        32 5.46972E+01
 -1        33 6.25209E+01
 -1        34 6.04411E+01
 -1        35 6.25209E+01
 -1        36 6.04411E+01
 -1        37 6.25209E+01
 -1        38 6.12472E+01
 -1        39 6.25209E+01
 -1        40 6.12472E+01
 -1        41 6.12472E+01
 -1        42 6.12472E+01
 -1        43 6.12472E+01
 -1        44 6.12472E+01
 -1        45 6.01728E+01
 -1        46 6.01728E+01
 -1        47 6.01728E+01
 -1        48 6.01728E+01
 -1        49 6.02670E+01
 -1        50 5.99620E+01
 -1        51 6.02670E+01
 -1        52 5.99620E+01
 -1        53 6.13877E+01
 -1        54 6.05455E+01
 -1        55 6.13877E+01
 -1        56 6.05455E+01
 -1        57 6.23169E+01
 -1        58 6.07975E+01
 -1        59 6.23169E+01
 -1        60 6.07975E+01
 -1        61 6.24194E+01
 -1        62 6.07975E+01
 -1        63 6.24194E+01
 -1        64 6.07975E+01
 -1        65 6.24194E+01
 -1        66 5.94679E+01
 -1        67 6.24194E+01
 -1        68 5.94679E+01
 -1        69 6.04560E+01
 -1        70 5.59389E+01
 -1        71 6.04560E+01
 -1        72 5.59389E+01
 -1        73 5.72838E+01
 -1        74 5.22762E+01
 -1        75 5.72838E+01
 -1        76 5.22762E+01
 -1        77 8.18196E+01
 -1        78 8.18196E+01
 -1        79 8.18196E+01
 -1        80 8.18196E+01
 -1        81 8.18196E+01
 -1        82 8.18196E+01
 -1        83 8.18196E+01
 -1        84 8.18196E+01
 -1        85 6.28737E+01
 -1        86 6.28737E+01
 -1        87 6.28737E+01
 -1        88 6.28737E+01
 -1        89 5.92224E+01
 -1        90 5.92224E+01
 -1        91 5.85227E+01
 -1        92 5.85227E+01
 -1        93 5.56958E+01
 -1        94 5.56958E+01
 -1        95 4.78108E+01
 -1        96 4.78108E+01
 -1        97 2.94887E+01
 -1        98 2.94887E+01
 -1        99 5.97874E+01
 -1       100 5.97874E+01
 -1       101 6.25209E+01
 -1       102 6.25209E+01
 -1       103 6.25209E+01
 -1       104 6.25209E+01
 -1       105 6.12062E+01
 -1       106 6.12062E+01
 -1       107 5.96056E+01
 -1       108 5.96056E+01
 -1       109 6.02670E+01
 -1       110 6.02670E+01
 -1       111 6.13877E+01
 -1       112 6.13877E+01
 -1       113 6.23169E+01
 -1       114 6.23169E+01
 -1       115 6.24194E+01
 -1       116 6.24194E+01
 -1       117 6.24194E+01
 -1       118 6.24194E+01
 -1       119 6.04560E+01
 -1       120 6.04560E+01
 -1       121 5.72838E+01
 -1       122 5.72838E+01
 -1       123 5.12836E+01
 -1       124 5.12836E+01
 -1       125 5.12836E+01
 -1       126 5.12836E+01
 -3
    1PSTEP                        49          13           3          
  100CL  113 3.30000E-01         126                     1   13           1
 -4  DISP        4    1
 -5  D1          1    2    1    0
 -5  D2          1    2    2    0
 -5  D3          1    2    3    0
 -5  ALL         1    2    0    0    1ALL
 -1         1 0.00000E+00 0.00000E+00 0.00000E+00
 -1         2 0.00000E+00 0.00000E+00 0.00000E+00
 -1         3 9.09808E-04 0.00000E+00 3.43451E-05
 -1         4 1.22571E-03 0.00000E+00-1.41750E-03
 -1         5 0.00000E+00 0.00000E+00 0.00000E+00
 -1         6 0.00000E+00 0.00000E+00 0.00000E+00
 -1         7 9.09883E-04 0.00000E+00 3.43379E-05
 -1         8 1.22574E-03 0.00000E+00-1.41751E-03
 -1         9 3.37881E-03 0.00000E+00 3.64833E-05
 -1        10 3.49450E-03 0.00000E+00-2.65278E-03
 -1        11 3.37882E-03 0.00000E+00 3.64596E-05
 -1        12 3.49454E-03 0.00000E+00-2.65280E-03
 -1        13 6.85828E-03 0.00000E+00-2.74385E-05
 -1        14 6.87485E-03 0.00000E+00-3.61903E-03
 -1        15 6.85826E-03 0.00000E+00-2.74569E-05
 -1        16 6.87485E-03 0.00000E+00-3.61905E-03
 -1        17 1.10798E-02 0.00000E+00-1.55852E-04
 -1        18 1.09916E-02 0.00000E+00-4.35539E-03
 -1        19 1.10798E-02 0.00000E+00-1.55873E-04
 -1        20 1.09916E-02 0.00000E+00-4.35541E-03
 -1        21 1.57419E-02 0.00000E+00-3.33971E-04
 -1        22 1.55758E-02 0.00000E+00-4.87317E-03
 -1        23 1.57419E-02 0.00000E+00-3.34003E-04
 -1        24 1.55758E-02 0.00000E+00-4.87319E-03
 -1        25 2.05975E-02 0.00000E+00-5.41633E-04
 -1        26 2.03786E-02 0.00000E+00-5.18367E-03
 -1        27 2.05975E-02 0.00000E+00-5.41652E-04
 -1        28 2.03786E-02 0.00000E+00-5.18367E-03
 -1        29 2.54192E-02 0.00000E+00-7.56923E-04
 -1        30 2.51730E-02 0.00000E+00-5.29439E-03
 -1        31 2.54192E-02 0.00000E+00-7.56915E-04
 -1        32 2.51731E-02 0.00000E+00-5.29439E-03
 -1        33 3.00124E-02 0.00000E+00-9.61106E-04
 -1        34 2.97598E-02 0.00000E+00-5.21660E-03
 -1        35 3.00125E-02 0.00000E+00-9.61097E-04
 -1        36 2.97599E-02 0.00000E+00-5.21662E-03
 -1        37 3.42114E-02 0.00000E+00-1.13910E-03
 -1        38 3.39684E-02 0.00000E+00-4.96703E-03
 -1        39 3.42114E-02 0.00000E+00-1.13910E-03
 -1        40 3.39684E-02 0.00000E+00-4.96701E-03
 -1        41 3.78751E-02 0.00000E+00-1.28063E-03
 -1        42 3.76545E-02 0.00000E+00-4.57702E-03
 -1        43 3.78751E-02 0.00000E+00-1.28061E-03
 -1        44 3.76545E-02 0.00000E+00-4.57699E-03
 -1        45 4.09188E-02 0.00000E+00-1.38317E-03
 -1        46 4.07286E-02 0.00000E+00-4.09672E-03
 -1        47 4.09189E-02 0.00000E+00-1.38316E-03
 -1        48 4.07287E-02 0.00000E+00-4.09670E-03
 -1        49 4.33264E-02 0.00000E+00-1.45158E-03
 -1        50 4.31685E-02 0.00000E+00-3.58004E-03
 -1        51 4.33264E-02 0.00000E+00-1.45158E-03
 -1        52 4.31686E-02 0.00000E+00-3.58004E-03
 -1        53 4.51288E-02 0.00000E+00-1.49474E-03
 -1        54 4.50020E-02 0.00000E+00-3.07012E-03
 -1        55 4.51289E-02 0.00000E+00-1.49476E-03
 -1        56 4.50020E-02 0.00000E+00-3.07015E-03
 -1        57 4.63749E-02 0.00000E+00-1.52149E-03
 -1        58 4.62775E-02 0.00000E+00-2.60003E-03
 -1        59 4.63749E-02 0.00000E+00-1.52151E-03
 -1        60 4.62775E-02 0.00000E+00-2.60004E-03
 -1        61 4.71392E-02 0.00000E+00-1.53793E-03
 -1        62 4.70684E-02 0.00000E+00-2.20039E-03
 -1        63 4.71392E-02 0.00000E+00-1.53796E-03
 -1        64 4.70684E-02 0.00000E+00-2.20033E-03
 -1        65 4.75208E-02 0.00000E+00-1.54939E-03
 -1        66 4.74757E-02 0.00000E+00-1.89423E-03
 -1        67 4.75208E-02 0.00000E+00-1.54943E-03
 -1        68 4.74757E-02 0.00000E+00-1.89427E-03
 -1        69 4.76319E-02 0.00000E+00-1.55752E-03
 -1        70 4.76104E-02 0.00000E+00-1.68739E-03
 -1        71 4.76319E-02 0.00000E+00-1.55753E-03
 -1        72 4.76103E-02 0.00000E+00-1.68734E-03
 -1        73 4.76030E-02 0.00000E+00-1.56002E-03
 -1        74 4.75927E-02 0.00000E+00-1.57064E-03
 -1        75 4.76031E-02 0.00000E+00-1.56001E-03
 -1        76 4.75927E-02 0.00000E+00-1.57065E-03
 -1        77 4.75246E-02 0.00000E+00-1.55658E-03
 -1        78 4.75383E-02 0.00000E+00-1.52355E-03
 -1        79 4.75247E-02 0.00000E+00-1.55657E-03
 -1        80 4.75382E-02 0.00000E+00-1.52351E-03
 -1        81 4.74730E-02 0.00000E+00-1.55570E-03
 -1        82 4.74260E-02 0.00000E+00-1.48308E-03
 -1        83 4.74729E-02 0.00000E+00-1.55567E-03
 -1        84 4.74261E-02 0.00000E+00-1.48294E-03
 -1        85 0.00000E+00 0.00000E+00 0.00000E+00
 -1        86 1.33335E-03 0.00000E+00 1.46953E-03
 -1        87 0.00000E+00 0.00000E+00 0.00000E+00
 -1        88 1.33329E-03 0.00000E+00 1.46949E-03
 -1        89 3.69989E-03 0.00000E+00 2.69010E-03
 -1        90 3.69982E-03 0.00000E+00 2.69005E-03
 -1        91 7.18040E-03 0.00000E+00 3.52811E-03
 -1        92 7.18030E-03 0.00000E+00 3.52808E-03
 -1        93 1.13799E-02 0.00000E+00 4.01689E-03
 -1        94 1.13798E-02 0.00000E+00 4.01689E-03
 -1        95 1.60128E-02 0.00000E+00 4.18925E-03
 -1        96 1.60127E-02 0.00000E+00 4.18924E-03
 -1        97 2.08255E-02 0.00000E+00 4.09465E-03
 -1        98 2.08255E-02 0.00000E+00 4.09462E-03
 -1        99 2.55920E-02 0.00000E+00 3.78358E-03
 -1       100 2.55919E-02 0.00000E+00 3.78360E-03
 -1       101 3.01219E-02 0.00000E+00 3.30462E-03
 -1       102 3.01218E-02 0.00000E+00 3.30467E-03
 -1       103 3.42562E-02 0.00000E+00 2.70328E-03
 -1       104 3.42562E-02 0.00000E+00 2.70331E-03
 -1       105 3.78634E-02 0.00000E+00 2.03081E-03
 -1       106 3.78633E-02 0.00000E+00 2.03081E-03
 -1       107 4.08657E-02 0.00000E+00 1.34331E-03
 -1       108 4.08656E-02 0.00000E+00 1.34333E-03
 -1       109 4.32480E-02 0.00000E+00 6.86033E-04
 -1       110 4.32479E-02 0.00000E+00 6.86074E-04
 -1       111 4.50387E-02 0.00000E+00 8.53004E-05
 -1       112 4.50387E-02 0.00000E+00 8.53161E-05
 -1       113 4.62850E-02 0.00000E+00-4.40556E-04
 -1       114 4.62849E-02 0.00000E+00-4.40573E-04
 -1       115 4.70621E-02 0.00000E+00-8.74115E-04
 -1       116 4.70620E-02 0.00000E+00-8.74154E-04
 -1       117 4.74616E-02 0.00000E+00-1.20349E-03
 -1       118 4.74616E-02 0.00000E+00-1.20346E-03
 -1       119 4.75943E-02 0.00000E+00-1.42287E-03
 -1       120 4.75942E-02 0.00000E+00-1.42286E-03
 -1       121 4.75827E-02 0.00000E+00-1.53891E-03
 -1       122 4.75827E-02 0.00000E+00-1.53891E-03
 -1       123 4.75341E-02 0.00000E+00-1.58227E-03
 -1       124 4.75340E-02 0.00000E+00-1.58228E-03
 -1       125 4.74232E-02 0.00000E+00-1.58379E-03
 -1       126 4.74233E-02 0.00000E+00-1.58372E-03
 -3
    1PSTEP                        50          13           3          
  100CL  113 3.30000E-01         126                     1   13           1
 -4  STRESS      6    1
 -5  SXX         1    4    1    1
 -5  SYY         1    4    2    2
 -5  SZZ         1    4    3    3
 -5  SXY         1    4    1    2
 -5  SYZ         1    4    2    3
 -5  SZX         1    4    3    1
 -1         1-6.41502E+03-6.56562E+03-1.46336E+04-8.51491E-05 9.84232E-05 3.43830E+03
 -1         2 2.65740E+02 1.96623E+02 2.86807E+02-2.31405E-06 1.83441E-04 2.80134E+03
 -1         3 3.41570E+01 8.55517E+01 2.19339E+02 3.82613E-02-3.39696E-03 7.58003E+02
 -1         4-2.25222E+03-4.41321E+03-1.19731E+04 1.84776E-02-6.23217E-03 7.21906E+02
 -1         5-6.41507E+03-6.56568E+03-1.46337E+04-8.51430E-05 9.84230E-05 3.43840E+03
 -1         6 2.65735E+02 1.96595E+02 2.86748E+02-2.32844E-06 1.83439E-04 2.80157E+03
 -1         7 3.45768E+01 8.57118E+01 2.19420E+02 3.82613E-02-3.39695E-03 7.58069E+02
 -1         8-2.25268E+03-4.41342E+03-1.19733E+04 1.84776E-02-6.23215E-03 7.21946E+02
 -1         9 8.59876E+01 1.31193E+02 3.07019E+02 7.58884E-03-1.21597E-02 9.37732E+02
 -1        10-2.61118E+03-3.83935E+03-9.85346E+03 1.98971E-02-6.76456E-03 2.03700E+02
 -1        11 8.65251E+01 1.31408E+02 3.07193E+02 7.58887E-03-1.21597E-02 9.37645E+02
 -1        12-2.61094E+03-3.83925E+03-9.85338E+03 1.98971E-02-6.76457E-03 2.03668E+02
 -1        13 1.30787E+02 1.31227E+02 2.90842E+02-7.11061E-03-9.50393E-03 8.59590E+02
 -1        14-1.62122E+03-2.59957E+03-6.88238E+03-2.40487E-03-8.02784E-03 2.80072E+02
 -1        15 1.31312E+02 1.31457E+02 2.91077E+02-7.11063E-03-9.50394E-03 8.59577E+02
 -1        16-1.62114E+03-2.59955E+03-6.88239E+03-2.40488E-03-8.02784E-03 2.80066E+02
 -1        17 1.53175E+02 1.20313E+02 2.44030E+02 2.45658E-03-1.09515E-02 7.93588E+02
 -1        18-9.77579E+02-1.60493E+03-4.30644E+03 1.60828E-02-1.13622E-02 3.16835E+02
 -1        19 1.53847E+02 1.20586E+02 2.44264E+02 2.45659E-03-1.09515E-02 7.93602E+02
 -1        20-9.77290E+02-1.60481E+03-4.30635E+03 1.60829E-02-1.13622E-02 3.16885E+02
 -1        21 1.54715E+02 9.82816E+01 1.75578E+02 1.38803E-02-1.67292E-02 7.04935E+02
 -1        22-3.66259E+02-7.03410E+02-1.96028E+03 1.87547E-02-1.21111E-02 4.00064E+02
 -1        23 1.55322E+02 9.85473E+01 1.75856E+02 1.38803E-02-1.67292E-02 7.04961E+02
 -1        24-3.66100E+02-7.03315E+02-1.96012E+03 1.87547E-02-1.21111E-02 4.00120E+02
 -1        25 1.41603E+02 7.07610E+01 9.81146E+01 2.55888E-02-9.79811E-03 6.15128E+02
 -1        26 1.53111E+02 7.88216E+01 1.15836E+02 2.54461E-02-4.96540E-06 4.82523E+02
 -1        27 1.42104E+02 7.10259E+01 9.84986E+01 2.55888E-02-9.79812E-03 6.15128E+02
 -1        28 1.53142E+02 7.88572E+01 1.15924E+02 2.54461E-02-4.95741E-06 4.82570E+02
 -1        29 1.24108E+02 4.34531E+01 2.22330E+01 4.22777E-03 4.10403E-03 5.16129E+02
 -1        30 5.99392E+02 7.54134E+02 1.93240E+03 1.38492E-02-1.64296E-03 5.37885E+02
 -1        31 1.24707E+02 4.37490E+01 2.26208E+01 4.22778E-03 4.10403E-03 5.16049E+02
 -1        32 5.99560E+02 7.54189E+02 1.93241E+03 1.38492E-02-1.64296E-03 5.37835E+02
 -1        33 1.00705E+02 1.70719E+01-4.66182E+01 1.26997E-02 4.60134E-03 4.11646E+02
 -1        34 9.60031E+02 1.31604E+03 3.47037E+03 2.25211E-02-7.72092E-03 5.52659E+02
 -1        35 1.01353E+02 1.73490E+01-4.63402E+01 1.26997E-02 4.60133E-03 4.11559E+02
 -1        36 9.60287E+02 1.31618E+03 3.47057E+03 2.25212E-02-7.72093E-03 5.52587E+02
 -1        37 7.27539E+01-4.44580E+00-9.48564E+01 1.41501E-02 1.48356E-03 2.89428E+02
 -1        38 1.22146E+03 1.74714E+03 4.67563E+03 1.53885E-02 7.62230E-03 5.08125E+02
 -1        39 7.33047E+01-4.20758E+00-9.46102E+01 1.41501E-02 1.48356E-03 2.89353E+02
 -1        40 1.22158E+03 1.74725E+03 4.67590E+03 1.53885E-02 7.62230E-03 5.08090E+02
 -1        41 4.62599E+01-1.74091E+01-1.15133E+02-1.33453E-03 5.52284E-03 1.47121E+02
 -1        42 1.37406E+03 2.01662E+03 5.44403E+03-2.91748E-03 1.88240E-02 3.98398E+02
 -1        43 4.67093E+01-1.72099E+01-1.14917E+02-1.33453E-03 5.52285E-03 1.47177E+02
 -1        44 1.37403E+03 2.01661E+03 5.44402E+03-2.91747E-03 1.88240E-02 3.98515E+02
 -1        45 2.81906E+01-2.18979E+01-1.13988E+02 1.80174E-02 5.69090E-03 1.24973E+01
 -1        46 1.42084E+03 2.11205E+03 5.72355E+03 2.70909E-02 9.95841E-03 2.54159E+02
 -1        47 2.87441E+01-2.16801E+01-1.13807E+02 1.80175E-02 5.69091E-03 1.25077E+01
 -1        48 1.42097E+03 2.11206E+03 5.72345E+03 2.70910E-02 9.95841E-03 2.54211E+02
 -1        49 1.88365E+01-2.25361E+01-1.06709E+02 4.26869E-03-9.67465E-04-8.97094E+01
 -1        50 1.37864E+03 2.05948E+03 5.58473E+03 8.05031E-03 2.32964E-03 1.15562E+02
 -1        51 1.93523E+01-2.23472E+01-1.06591E+02 4.26871E-03-9.67467E-04-8.97716E+01
 -1        52 1.37860E+03 2.05940E+03 5.58449E+03 8.05031E-03 2.32964E-03 1.15519E+02
 -1        53 2.05709E+01-2.07457E+01-1.00445E+02 1.90072E-02-6.93534E-03-1.66927E+02
 -1        54 1.27804E+03 1.90202E+03 5.14570E+03 7.72062E-03-1.52708E-02-4.86734E+00
 -1        55 2.08000E+01-2.06746E+01-1.00433E+02 1.90072E-02-6.93534E-03-1.66936E+02
 -1        56 1.27778E+03 1.90189E+03 5.14553E+03 7.72061E-03-1.52708E-02-4.89305E+00
 -1        57 3.33550E+01-1.42537E+01-8.87105E+01 2.56640E-02-1.15584E-02-2.30985E+02
 -1        58 1.13217E+03 1.66026E+03 4.46555E+03 1.53375E-02-4.28960E-03-1.06111E+02
 -1        59 3.38755E+01-1.40530E+01-8.85577E+01 2.56641E-02-1.15584E-02-2.30996E+02
 -1        60 1.13216E+03 1.66038E+03 4.46596E+03 1.53375E-02-4.28961E-03-1.06106E+02
 -1        61 3.26089E+01-1.27793E+01-8.00171E+01 1.22735E-02-1.45846E-02-2.78273E+02
 -1        62 9.29330E+02 1.33893E+03 3.57516E+03-6.38108E-03 3.26686E-02-1.80272E+02
 -1        63 3.27232E+01-1.27618E+01-8.00701E+01 1.22735E-02-1.45846E-02-2.78169E+02
 -1        64 9.28876E+02 1.33870E+03 3.57485E+03-6.38104E-03 3.26685E-02-1.80086E+02
 -1        65 4.64164E+01-3.70678E+00-6.09119E+01 8.40119E-03-2.25676E-02-3.04971E+02
 -1        66 7.13336E+02 9.84354E+02 2.59027E+03-1.82758E-02-1.68946E-02-2.23410E+02
 -1        67 4.64120E+01-3.68026E+00-6.08143E+01 8.40121E-03-2.25676E-02-3.05110E+02
 -1        68 7.12746E+02 9.84084E+02 2.58996E+03-1.82758E-02-1.68946E-02-2.23493E+02
 -1        69 6.42273E+01 1.35891E+01-1.96554E+01 1.01653E-03-3.21855E-03-2.80520E+02
 -1        70 5.16389E+02 6.47951E+02 1.65306E+03-4.50998E-02 2.52997E-02-2.19820E+02
 -1        71 6.44214E+01 1.37433E+01-1.93348E+01 1.01652E-03-3.21855E-03-2.80429E+02
 -1        72 5.15470E+02 6.47586E+02 1.65276E+03-4.50996E-02 2.52996E-02-2.19596E+02
 -1        73 5.65634E+01 2.53503E+01 2.79649E+01 2.04725E-02 5.35937E-03-2.14026E+02
 -1        74 2.66628E+02 3.30176E+02 8.36639E+02-1.45521E-03-5.87924E-03-1.44302E+02
 -1        75 5.66787E+01 2.54202E+01 2.80830E+01 2.04725E-02 5.35939E-03-2.13908E+02
 -1        76 2.66145E+02 3.29956E+02 8.36387E+02-1.45525E-03-5.87922E-03-1.44377E+02
 -1        77 3.28948E+01 1.98382E+01 3.31462E+01 4.54733E-02 4.81299E-03-1.09681E+02
 -1        78 3.50122E+02 2.65371E+02 5.35640E+02-4.77348E-02 1.98964E-02-1.55452E+02
 -1        79 3.26401E+01 1.97472E+01 3.30979E+01 4.54732E-02 4.81299E-03-1.09777E+02
 -1        80 3.48501E+02 2.64871E+02 5.35591E+02-4.77346E-02 1.98964E-02-1.55104E+02
 -1        81 1.96918E+01 1.05355E+01 1.60933E+01-4.02437E-02 1.25077E-02-3.85189E+00
 -1        82-3.17686E+02-2.93721E+01 2.20443E+02 8.40148E-02 6.93008E-02-1.22333E+02
 -1        83 2.02441E+01 1.08135E+01 1.64638E+01-4.02438E-02 1.25077E-02-4.25595E+00
 -1        84-3.14639E+02-2.78095E+01 2.22601E+02 8.40158E-02 6.93016E-02-1.21204E+02
 -1        85 6.95310E+03 6.76453E+03 1.65504E+04-2.06063E-04-1.49557E-04 4.49090E+03
 -1        86 2.17049E+03 4.52251E+03 1.34746E+04-2.99641E-02-2.37475E-02 1.50885E+03
 -1        87 6.95289E+03 6.76433E+03 1.65499E+04-2.06029E-04-1.49550E-04 4.49070E+03
 -1        88 2.17174E+03 4.52298E+03 1.34749E+04-2.99642E-02-2.37475E-02 1.50885E+03
 -1        89 2.57675E+03 3.98692E+03 1.11225E+04-3.73380E-02-2.73574E-02 1.09829E+03
 -1        90 2.57769E+03 3.98734E+03 1.11230E+04-3.73381E-02-2.73574E-02 1.09829E+03
 -1        91 1.78416E+03 2.83495E+03 7.88335E+03-5.26210E-02-1.26680E-02 1.12501E+03
 -1        92 1.78520E+03 2.83545E+03 7.88402E+03-5.26212E-02-1.26680E-02 1.12498E+03
 -1        93 1.20729E+03 1.84032E+03 5.02406E+03-4.92051E-02-9.51780E-04 9.28586E+02
 -1        94 1.20843E+03 1.84084E+03 5.02465E+03-4.92053E-02-9.51771E-04 9.28554E+02
 -1        95 6.15590E+02 9.02472E+02 2.42276E+03-3.63291E-02-2.20499E-03 7.05956E+02
 -1        96 6.16635E+02 9.02899E+02 2.42314E+03-3.63293E-02-2.20499E-03 7.05943E+02
 -1        97 7.84389E+01 6.57901E+01 1.47887E+02-1.48669E-02-1.10678E-02 4.78062E+02
 -1        98 7.93333E+01 6.62020E+01 1.48364E+02-1.48670E-02-1.10678E-02 4.78047E+02
 -1        99-3.95116E+02-6.65034E+02-1.80668E+03-3.80987E-02 9.29050E-03 2.66185E+02
 -1       100-3.94079E+02-6.64489E+02-1.80591E+03-3.80989E-02 9.29055E-03 2.66073E+02
 -1       101-7.97715E+02-1.28368E+03-3.43909E+03-3.81771E-02 2.60660E-02 8.92984E+01
 -1       102-7.96601E+02-1.28317E+03-3.43854E+03-3.81773E-02 2.60661E-02 8.91485E+01
 -1       103-1.11269E+03-1.76529E+03-4.69551E+03-3.72591E-02 1.43502E-02-5.20084E+01
 -1       104-1.11171E+03-1.76493E+03-4.69529E+03-3.72593E-02 1.43502E-02-5.21326E+01
 -1       105-1.31453E+03-2.06716E+03-5.47325E+03-4.43049E-02 1.08742E-03-1.58210E+02
 -1       106-1.31365E+03-2.06680E+03-5.47293E+03-4.43050E-02 1.08741E-03-1.58176E+02
 -1       107-1.39350E+03-2.17552E+03-5.74536E+03-2.77158E-02 8.27497E-03-2.21727E+02
 -1       108-1.39243E+03-2.17500E+03-5.74474E+03-2.77159E-02 8.27499E-03-2.21762E+02
 -1       109-1.36777E+03-2.12644E+03-5.61295E+03-4.61652E-02 2.05796E-02-2.44599E+02
 -1       110-1.36669E+03-2.12597E+03-5.61248E+03-4.61655E-02 2.05797E-02-2.44710E+02
 -1       111-1.25644E+03-1.96036E+03-5.18615E+03-1.73132E-02 7.95402E-03-2.47547E+02
 -1       112-1.25579E+03-1.96016E+03-5.18611E+03-1.73133E-02 7.95402E-03-2.47620E+02
 -1       113-1.07507E+03-1.69694E+03-4.51146E+03-3.71078E-02-8.61690E-03-2.46251E+02
 -1       114-1.07387E+03-1.69650E+03-4.51117E+03-3.71080E-02-8.61689E-03-2.46292E+02
 -1       115-8.68518E+02-1.36806E+03-3.64540E+03-2.23347E-02-1.96191E-02-2.47159E+02
 -1       116-8.67661E+02-1.36762E+03-3.64481E+03-2.23348E-02-1.96192E-02-2.47059E+02
 -1       117-6.13967E+02-9.84441E+02-2.64236E+03-1.28384E-02 1.79632E-02-2.49666E+02
 -1       118-6.13396E+02-9.84126E+02-2.64189E+03-1.28385E-02 1.79633E-02-2.49994E+02
 -1       119-3.67431E+02-5.99680E+02-1.62136E+03-5.14948E-02 6.65488E-03-2.27990E+02
 -1       120-3.66410E+02-5.99290E+02-1.62108E+03-5.14950E-02 6.65490E-03-2.28039E+02
 -1       121-1.48797E+02-2.74030E+02-7.62139E+02-9.01714E-03-6.71107E-04-1.57089E+02
 -1       122-1.48245E+02-2.73833E+02-7.62034E+02-9.01715E-03-6.71119E-04-1.56960E+02
 -1       123-2.05063E+02-1.47129E+02-2.84672E+02-2.02768E-02-8.71967E-03-1.66067E+02
 -1       124-2.03534E+02-1.46388E+02-2.83732E+02-2.02768E-02-8.71968E-03-1.65846E+02
 -1       125 5.31428E+02 2.23261E+02 2.14339E+02 3.81080E-02 3.24692E-02-2.55160E+02
 -1       126 5.30148E+02 2.22926E+02 2.14499E+02 3.81079E-02 3.24693E-02-2.54929E+02
 -3
    1PSTEP                        51          13           3          
  100CL  113 3.30000E-01         126                     1   13           1
 -4  TOSTRAIN    6    1
 -5  EXX         1    4    1    1
 -5  EYY         1    4    2    2
 -5  EZZ         1    4    3    3
 -5  EXY         1    4    1    2
 -5  EYZ         1    4    2    3
 -5  EZX         1    4    3    1
 -1         1-7.36995E-05-1.13129E-15-2.77207E-02-1.71282E-10 2.32545E-13 1.22569E-02
 -1         2-7.40996E-05-3.61957E-15 7.78537E-04-3.65070E-11 5.54222E-13 9.09790E-03
 -1         3-6.94376E-04 1.83721E-14 9.94670E-04 1.24476E-07-7.71362E-09 2.43530E-03
 -1         4 6.69632E-03 6.53666E-15-2.55717E-02 6.10499E-08-1.93114E-08 3.44945E-03
 -1         5-7.36993E-05-1.13129E-15-2.77209E-02-1.71274E-10 2.32545E-13 1.22572E-02
 -1         6-7.40959E-05-3.61957E-15 7.78423E-04-3.65260E-11 5.54223E-13 9.09864E-03
 -1         7-6.93451E-04 1.83721E-14 9.94418E-04 1.24476E-07-7.71362E-09 2.43554E-03
 -1         8 6.69555E-03 6.53666E-15-2.55718E-02 6.10498E-08-1.93113E-08 3.44958E-03
 -1         9-6.54000E-04-1.71728E-15 1.16359E-03 2.68149E-08-3.80014E-08 2.98322E-03
 -1        10 3.72296E-03 8.28695E-15-2.01514E-02 6.60287E-08-1.90523E-08 2.01036E-03
 -1        11-6.52910E-04-1.71728E-15 1.16343E-03 2.68149E-08-3.80014E-08 2.98300E-03
 -1        12 3.72343E-03 8.28695E-15-2.01515E-02 6.60287E-08-1.90523E-08 2.01027E-03
 -1        13-5.10900E-04-1.24595E-15 1.05147E-03-2.07733E-08-3.24218E-08 2.72028E-03
 -1        14 2.89124E-03 4.36322E-17-1.40608E-02-5.84240E-09-2.70967E-08 2.19332E-03
 -1        15-5.09931E-04-1.24595E-15 1.05149E-03-2.07733E-08-3.24218E-08 2.72031E-03
 -1        16 2.89142E-03 4.36322E-17-1.40609E-02-5.84240E-09-2.70967E-08 2.19332E-03
 -1        17-3.77277E-04-2.95957E-15 8.86686E-04 1.10239E-08-3.47916E-08 2.51230E-03
 -1        18 1.75601E-03 7.10813E-15-8.67228E-03 5.53547E-08-3.28925E-08 1.95911E-03
 -1        19-3.75992E-04-2.95957E-15 8.86580E-04 1.10239E-08-3.47916E-08 2.51245E-03
 -1        20 1.75654E-03 7.10813E-15-8.67232E-03 5.53547E-08-3.28925E-08 1.95933E-03
 -1        21-2.55890E-04 4.60677E-15 6.78537E-04 5.00415E-08-5.00312E-08 2.24297E-03
 -1        22 8.02241E-04 1.01724E-14-3.84039E-03 6.44255E-08-3.38817E-08 1.76294E-03
 -1        23-2.54803E-04 4.60677E-15 6.78600E-04 5.00415E-08-5.00312E-08 2.24314E-03
 -1        24 8.02413E-04 1.01724E-14-3.84015E-03 6.44255E-08-3.38817E-08 1.76311E-03
 -1        25-1.55703E-04 1.15206E-14 4.61581E-04 8.58524E-08-2.39931E-08 1.97500E-03
 -1        26-5.88688E-05 1.28530E-14 4.03633E-04 8.23077E-08 7.64682E-09 1.55135E-03
 -1        27-1.54941E-04 1.15206E-14 4.61969E-04 8.58525E-08-2.39931E-08 1.97503E-03
 -1        28-5.89114E-05 1.28530E-14 4.03830E-04 8.23077E-08 7.64681E-09 1.55148E-03
 -1        29-6.14043E-05-3.85669E-15 2.47234E-04 1.24503E-08 1.45162E-08 1.67810E-03
 -1        30-7.95036E-04 3.34110E-15 4.07341E-03 4.52861E-08-1.22890E-09 1.31539E-03
 -1        31-6.03755E-05-3.85669E-15 2.47489E-04 1.24503E-08 1.45162E-08 1.67790E-03
 -1        32-7.94641E-04 3.34110E-15 4.07326E-03 4.52861E-08-1.22891E-09 1.31528E-03
 -1        33 1.32506E-05-2.01641E-15 5.40436E-05 3.98561E-08 1.83489E-08 1.35836E-03
 -1        34-1.42245E-03 1.05677E-14 7.15092E-03 7.50164E-08-1.86476E-08 1.06010E-03
 -1        35 1.44878E-05-2.01641E-15 5.40096E-05 3.98561E-08 1.83490E-08 1.35817E-03
 -1        36-1.42203E-03 1.05677E-14 7.15110E-03 7.50164E-08-1.86476E-08 1.05989E-03
 -1        37 6.15218E-05-1.07711E-15-9.24104E-05 4.55283E-08 8.28154E-09 9.71057E-04
 -1        38-1.92558E-03 4.86162E-15 9.53916E-03 4.78315E-08 2.81382E-08 7.57282E-04
 -1        39 6.25566E-05-1.07711E-15-9.24106E-05 4.55283E-08 8.28153E-09 9.70890E-04
 -1        40-1.92555E-03 4.86162E-15 9.53964E-03 4.78315E-08 2.81382E-08 7.57134E-04
 -1        41 8.84337E-05-3.89031E-15-1.79324E-04-5.47315E-09 1.77340E-08 5.08597E-04
 -1        42-2.24017E-03 4.30979E-15 1.10345E-02-1.35287E-08 5.96662E-08 4.01231E-04
 -1        43 8.92167E-05-3.89031E-15-1.79240E-04-5.47315E-09 1.77340E-08 5.08827E-04
 -1        44-2.24026E-03 4.30979E-15 1.10345E-02-1.35287E-08 5.96662E-08 4.01593E-04
 -1        45 1.01547E-04 2.73062E-15-2.13415E-04 5.75413E-08 2.16973E-08 6.54976E-05
 -1        46-2.33534E-03 1.47212E-14 1.15483E-02 8.59694E-08 3.66039E-08 5.95049E-05
 -1        47 1.02613E-04 2.73062E-15-2.13532E-04 5.75414E-08 2.16973E-08 6.55964E-05
 -1        48-2.33500E-03 1.47212E-14 1.15480E-02 8.59694E-08 3.66039E-08 5.97082E-05
 -1        49 1.07605E-04-5.65661E-15-2.21475E-04 1.40754E-08-2.62467E-09-2.73250E-04
 -1        50-2.25680E-03 2.38409E-16 1.12391E-02 2.57704E-08 8.52181E-09-2.03637E-04
 -1        51 1.08677E-04-5.65661E-15-2.21724E-04 1.40754E-08-2.62467E-09-2.73395E-04
 -1        52-2.25666E-03 2.38409E-16 1.12386E-02 2.57704E-08 8.52179E-09-2.03747E-04
 -1        53 1.24231E-04 5.28108E-15-2.27992E-04 6.24605E-08-2.06174E-08-5.29334E-04
 -1        54-2.04591E-03 4.63449E-15 1.03376E-02 2.65165E-08-4.81758E-08-4.03012E-04
 -1        55 1.24734E-04 5.28108E-15-2.28184E-04 6.24606E-08-2.06173E-08-5.29339E-04
 -1        56-2.04634E-03 4.63449E-15 1.03375E-02 2.65165E-08-4.81757E-08-4.03103E-04
 -1        57 1.52790E-04 9.56080E-15-2.25125E-04 8.41986E-08-3.57545E-08-7.41757E-04
 -1        58-1.72059E-03 1.86170E-15 8.95332E-03 4.99947E-08-1.26799E-08-5.67147E-04
 -1        59 1.53812E-04 9.56080E-15-2.25274E-04 8.41987E-08-3.57545E-08-7.41764E-04
 -1        60-1.72100E-03 1.86170E-15 8.95424E-03 4.99947E-08-1.26799E-08-5.67154E-04
 -1        61 1.48139E-04 1.48238E-15-2.10510E-04 4.04434E-08-4.67585E-08-8.99618E-04
 -1        62-1.33025E-03 7.23840E-15 7.15768E-03-2.19984E-08 1.05046E-07-6.88641E-04
 -1        63 1.48439E-04 1.48238E-15-2.10730E-04 4.04434E-08-4.67585E-08-8.99274E-04
 -1        64-1.33100E-03 7.23840E-15 7.15742E-03-2.19983E-08 1.05046E-07-6.88054E-04
 -1        65 1.62693E-04 7.36200E-15-1.82582E-04 2.76613E-08-7.32582E-08-9.88901E-04
 -1        66-8.79752E-04 2.33093E-15 5.15955E-03-5.90669E-08-5.49442E-08-7.58809E-04
 -1        67 1.62591E-04 7.36200E-15-1.82362E-04 2.76614E-08-7.32583E-08-9.89350E-04
 -1        68-8.80793E-04 2.33093E-15 5.15940E-03-5.90669E-08-5.49441E-08-7.59072E-04
 -1        69 1.63266E-04-1.06348E-14-1.06014E-04 3.31679E-09-1.04234E-08-9.10917E-04
 -1        70-4.27914E-04 3.73823E-14 3.24236E-03-1.46564E-07 8.15412E-08-7.18000E-04
 -1        71 1.63391E-04-1.06348E-14-1.05469E-04 3.31678E-09-1.04234E-08-9.10619E-04
 -1        72-4.29712E-04 3.73823E-14 3.24258E-03-1.46563E-07 8.15412E-08-7.17283E-04
 -1        73 9.95532E-05 6.38218E-15 9.85611E-06 6.65425E-08 1.74527E-08-6.95377E-04
 -1        74-2.07197E-04-9.00122E-15 1.63993E-03-4.75767E-09-1.90606E-08-4.67011E-04
 -1        75 9.97008E-05 6.38218E-15 1.00124E-05 6.65425E-08 1.74528E-08-6.94995E-04
 -1        76-2.08052E-04-9.00122E-15 1.63983E-03-4.75772E-09-1.90606E-08-4.67256E-04
 -1        77 4.18004E-05 1.78836E-14 4.39878E-05 1.47789E-07 1.55582E-08-3.56554E-04
 -1        78 2.73614E-04 1.26350E-15 8.77396E-04-1.54997E-07 6.46933E-08-5.03292E-04
 -1        79 4.12660E-05 1.78836E-14 4.41279E-05 1.47789E-07 1.55582E-08-3.56867E-04
 -1        80 2.69981E-04 1.26350E-15 8.78858E-04-1.54997E-07 6.46933E-08-5.02161E-04
 -1        81 2.82277E-05-1.21708E-14 1.80723E-05-1.30754E-07 4.07785E-08-1.20381E-05
 -1        82-9.39762E-04 1.44140E-13 8.12150E-04 2.73687E-07 2.24739E-07-3.95032E-04
 -1        83 2.91251E-05-1.21708E-14 1.83749E-05-1.30754E-07 4.07786E-08-1.33514E-05
 -1        84-9.34910E-04 1.44140E-13 8.14070E-04 2.73688E-07 2.24740E-07-3.91359E-04
 -1        85-7.44997E-05-1.96434E-15 3.01027E-02-4.83196E-10 6.02623E-13 1.33333E-02
 -1        86-8.08507E-03 1.08523E-14 2.79409E-02-9.47560E-08-7.72893E-08 3.60468E-03
 -1        87-7.44925E-05-1.96434E-15 3.01018E-02-4.83144E-10 6.02623E-13 1.33327E-02
 -1        88-8.08245E-03 1.08523E-14 2.79403E-02-9.47563E-08-7.72892E-08 3.60475E-03
 -1        89-5.03096E-03 3.49995E-14 2.25374E-02-1.15830E-07-9.26094E-08 1.96492E-03
 -1        90-5.02925E-03 3.49995E-14 2.25376E-02-1.15831E-07-9.26093E-08 1.96502E-03
 -1        91-3.91304E-03 5.32957E-14 1.63167E-02-1.67178E-07-5.21372E-08 2.12556E-03
 -1        92-3.91128E-03 5.32957E-14 1.63172E-02-1.67178E-07-5.21372E-08 2.12554E-03
 -1        93-2.51056E-03 4.09782E-14 1.05395E-02-1.58911E-07-1.62217E-08 1.89345E-03
 -1        94-2.50852E-03 4.09782E-14 1.05398E-02-1.58911E-07-1.62218E-08 1.89349E-03
 -1        95-1.31402E-03 1.71508E-14 5.24158E-03-1.16849E-07-1.77088E-08 1.70469E-03
 -1        96-1.31202E-03 1.71508E-14 5.24144E-03-1.16849E-07-1.77089E-08 1.70484E-03
 -1        97-2.52536E-04-1.08549E-15 5.41645E-04-4.46546E-08-4.02950E-08 1.50271E-03
 -1        98-2.50970E-04-1.08549E-15 5.41864E-04-4.46547E-08-4.02950E-08 1.50278E-03
 -1        99 6.72227E-04 2.40339E-14-3.54521E-03-1.26159E-07 1.89130E-08 1.27449E-03
 -1       100 6.73890E-04 2.40339E-14-3.54452E-03-1.26159E-07 1.89131E-08 1.27421E-03
 -1       101 1.44895E-03 3.41403E-14-6.98686E-03-1.31067E-07 7.44747E-08 1.02987E-03
 -1       102 1.45100E-03 3.41403E-14-6.98676E-03-1.31068E-07 7.44747E-08 1.02953E-03
 -1       103 2.04863E-03 2.33609E-14-9.65391E-03-1.24442E-07 3.76424E-08 7.38427E-04
 -1       104 2.05067E-03 2.33609E-14-9.65441E-03-1.24442E-07 3.76424E-08 7.38210E-04
 -1       105 2.41704E-03 3.39586E-14-1.13149E-02-1.44048E-07-5.98015E-09 3.91103E-04
 -1       106 2.41870E-03 3.39586E-14-1.13150E-02-1.44048E-07-5.98018E-09 3.91342E-04
 -1       107 2.53843E-03 8.94607E-15-1.18996E-02-9.14431E-08 2.23192E-08 5.36152E-05
 -1       108 2.54022E-03 8.94607E-15-1.18992E-02-9.14433E-08 2.23193E-08 5.35817E-05
 -1       109 2.47201E-03 4.10790E-14-1.16233E-02-1.52870E-07 6.12742E-08-2.09473E-04
 -1       110 2.47401E-03 4.10790E-14-1.16233E-02-1.52870E-07 6.12741E-08-2.09755E-04
 -1       111 2.29438E-03-3.63800E-16-1.07353E-02-5.70327E-08 2.43504E-08-4.10248E-04
 -1       112 2.29581E-03-3.63800E-16-1.07358E-02-5.70327E-08 2.43504E-08-4.10419E-04
 -1       113 2.02617E-03 1.55415E-14-9.33883E-03-1.20035E-07-3.10377E-08-5.70506E-04
 -1       114 2.02863E-03 1.55415E-14-9.33938E-03-1.20035E-07-3.10377E-08-5.70576E-04
 -1       115 1.62652E-03 1.22751E-14-7.52776E-03-7.18552E-08-6.53278E-08-6.95120E-04
 -1       116 1.62787E-03 1.22751E-14-7.52723E-03-7.18553E-08-6.53279E-08-6.94773E-04
 -1       117 1.20514E-03-1.37976E-15-5.45653E-03-4.20279E-08 5.83309E-08-7.75441E-04
 -1       118 1.20597E-03-1.37976E-15-5.45601E-03-4.20280E-08 5.83310E-08-7.76514E-04
 -1       119 7.54445E-04 4.15009E-14-3.34718E-03-1.67424E-07 2.12333E-08-7.35952E-04
 -1       120 7.56494E-04 4.15009E-14-3.34755E-03-1.67424E-07 2.12333E-08-7.36104E-04
 -1       121 4.06303E-04-4.43709E-15-1.59237E-03-2.93045E-08-2.16602E-09-5.12160E-04
 -1       122 4.07454E-04-4.43709E-15-1.59267E-03-2.93045E-08-2.16604E-09-5.11738E-04
 -1       123-1.90013E-04-8.07475E-15-4.47185E-04-6.59364E-08-2.83162E-08-5.40543E-04
 -1       124-1.87448E-04-8.07475E-15-4.46539E-04-6.59365E-08-2.83162E-08-5.39820E-04
 -1       125 9.96218E-04 2.48173E-14-2.80514E-05 1.23944E-07 1.05421E-07-8.28660E-04
 -1       126 9.93161E-04 2.48173E-14-2.64465E-05 1.23943E-07 1.05421E-07-8.27907E-04
 -3
    1PSTEP                        52          13           3          
  100CL  113 3.30000E-01         126                     1   13           1
 -4  ERROR       1    1
 -5  STR(%)      1    1    0    0
 -1         1 6.50001E+01
 -1         2 6.50001E+01
 -1         3 6.56806E+01
 -1         4 6.56806E+01
 -1         5 6.50001E+01
 -1         6 6.50001E+01
 -1         7 6.56806E+01
 -1         8 6.56806E+01
 -1         9 6.70646E+01
 -1        10 6.70646E+01
 -1        11 6.70646E+01
 -1        12 6.70646E+01
 -1        13 6.70646E+01
 -1        14 6.70646E+01
 -1        15 6.70646E+01
 -1        16 6.70646E+01
 -1        17 6.64324E+01
 -1        18 6.64324E+01
 -1        19 6.64324E+01
 -1        20 6.64324E+01
 -1        21 6.06916E+01
 -1        22 6.06916E+01
 -1        23 6.06916E+01
 -1        24 6.06916E+01
 -1        25 5.79531E+01
 -1        26 5.79531E+01
 -1        27 5.79531E+01
 -1        28 5.79531E+01
 -1        29 5.76513E+01
 -1        30 5.51572E+01
 -1        31 5.76513E+01
 -1        32 5.51572E+01
 -1        33 6.18324E+01
 -1        34 6.18324E+01
 -1        35 6.18324E+01
 -1        36 6.18324E+01
 -1        37 6.24407E+01
 -1        38 6.24407E+01
 -1        39 6.24407E+01
 -1        40 6.24407E+01
 -1        41 6.24407E+01
 -1        42 6.24407E+01
 -1        43 6.24407E+01
 -1        44 6.24407E+01
 -1        45 6.12769E+01
 -1        46 6.12769E+01
 -1        47 6.12769E+01
 -1        48 6.12769E+01
 -1        49 6.19248E+01
 -1        50 6.19248E+01
 -1        51 6.19248E+01
 -1        52 6.19248E+01
 -1        53 6.28336E+01
 -1        54 6.28336E+01
 -1        55 6.28336E+01
 -1        56 6.28336E+01
 -1        57 6.34629E+01
 -1        58 6.34629E+01
 -1        59 6.34629E+01
 -1        60 6.34629E+01
 -1        61 6.34629E+01
 -1        62 6.34629E+01
 -1        63 6.34629E+01
 -1        64 6.34629E+01
 -1        65 6.33065E+01
 -1        66 6.33065E+01
 -1        67 6.33065E+01
 -1        68 6.33065E+01
 -1        69 5.97677E+01
 -1        70 5.97677E+01
 -1        71 5.97677E+01
 -1        72 5.97677E+01
 -1        73 5.32981E+01
 -1        74 5.32981E+01
 -1        75 5.32981E+01
 -1        76 5.32981E+01
 -1        77 8.76321E+01
 -1        78 8.76321E+01
 -1        79 8.76321E+01
 -1        80 8.76321E+01
 -1        81 8.76321E+01
 -1        82 8.76321E+01
 -1        83 8.76321E+01
 -1        84 8.76321E+01
 -1        85 6.23556E+01
 -1        86 6.23556E+01
 -1        87 6.23556E+01
 -1        88 6.23556E+01
 -1        89 5.86594E+01
 -1        90 5.86594E+01
 -1        91 5.79330E+01
 -1        92 5.79330E+01
 -1        93 5.50535E+01
 -1        94 5.50535E+01
 -1        95 4.83946E+01
 -1        96 4.83946E+01
 -1        97 2.58314E+01
 -1        98 2.58314E+01
 -1        99 5.76513E+01
 -1       100 5.76513E+01
 -1       101 6.10589E+01
 -1       102 6.10589E+01
 -1       103 6.10589E+01
 -1       104 6.10589E+01
 -1       105 6.00540E+01
 -1       106 6.00540E+01
 -1       107 5.85359E+01
 -1       108 5.85359E+01
 -1       109 5.89214E+01
 -1       110 5.89214E+01
 -1       111 5.94931E+01
 -1       112 5.94931E+01
 -1       113 5.97308E+01
 -1       114 5.97308E+01
 -1       115 5.97308E+01
 -1       116 5.97308E+01
 -1       117 5.92082E+01
 -1       118 5.92082E+01
 -1       119 5.64806E+01
 -1       120 5.64806E+01
 -1       121 5.23983E+01
 -1       122 5.23983E+01
 -1       123 5.36953E+01
 -1       124 5.36953E+01
 -1       125 5.36953E+01
 -1       126 5.36953E+01
 -3
    1PSTEP                        53          14           3          
  100CL  114 3.40000E-01         126                     1   14           1
 -4  DISP        4    1
 -5  D1          1    2    1    0
 -5  D2          1    2    2    0
 -5  D3          1    2    3    0
 -5  ALL         1    2    0    0    1ALL
 -1         1 0.00000E+00 0.00000E+00 0.00000E+00
 -1         2 0.00000E+00 0.00000E+00 0.00000E+00
 -1         3 9.77049E-04 0.00000E+00 2.10839E-05
 -1         4 1.30763E-03 0.00000E+00-1.49633E-03
 -1         5 0.00000E+00 0.00000E+00 0.00000E+00
 -1         6 0.00000E+00 0.00000E+00 0.00000E+00
 -1         7 9.77007E-04 0.00000E+00 2.10886E-05
 -1         8 1.30766E-03 0.00000E+00-1.49634E-03
 -1         9 3.56236E-03 0.00000E+00 8.52052E-06
 -1        10 3.67746E-03 0.00000E+00-2.78595E-03
 -1        11 3.56236E-03 0.00000E+00 8.51108E-06
 -1        12 3.67751E-03 0.00000E+00-2.78596E-03
 -1        13 7.16738E-03 0.00000E+00-7.06027E-05
 -1        14 7.17836E-03 0.00000E+00-3.79519E-03
 -1        15 7.16732E-03 0.00000E+00-7.06252E-05
 -1        16 7.17836E-03 0.00000E+00-3.79521E-03
 -1        17 1.15374E-02 0.00000E+00-2.14474E-04
 -1        18 1.14368E-02 0.00000E+00-4.57475E-03
 -1        19 1.15374E-02 0.00000E+00-2.14489E-04
 -1        20 1.14368E-02 0.00000E+00-4.57479E-03
 -1        21 1.63804E-02 0.00000E+00-4.08169E-04
 -1        22 1.61967E-02 0.00000E+00-5.13463E-03
 -1        23 1.63804E-02 0.00000E+00-4.08176E-04
 -1        24 1.61968E-02 0.00000E+00-5.13467E-03
 -1        25 2.14410E-02 0.00000E+00-6.33207E-04
 -1        26 2.12001E-02 0.00000E+00-5.48262E-03
 -1        27 2.14410E-02 0.00000E+00-6.33206E-04
 -1        28 2.12002E-02 0.00000E+00-5.48264E-03
 -1        29 2.64914E-02 0.00000E+00-8.67690E-04
 -1        30 2.62188E-02 0.00000E+00-5.62016E-03
 -1        31 2.64914E-02 0.00000E+00-8.67672E-04
 -1        32 2.62188E-02 0.00000E+00-5.62016E-03
 -1        33 3.13117E-02 0.00000E+00-1.08930E-03
 -1        34 3.10318E-02 0.00000E+00-5.55235E-03
 -1        35 3.13117E-02 0.00000E+00-1.08927E-03
 -1        36 3.10319E-02 0.00000E+00-5.55231E-03
 -1        37 3.57103E-02 0.00000E+00-1.28035E-03
 -1        38 3.54438E-02 0.00000E+00-5.30590E-03
 -1        39 3.57102E-02 0.00000E+00-1.28033E-03
 -1        40 3.54439E-02 0.00000E+00-5.30585E-03
 -1        41 3.95665E-02 0.00000E+00-1.43345E-03
 -1        42 3.93269E-02 0.00000E+00-4.92490E-03
 -1        43 3.95664E-02 0.00000E+00-1.43343E-03
 -1        44 3.93269E-02 0.00000E+00-4.92489E-03
 -1        45 4.28095E-02 0.00000E+00-1.55000E-03
 -1        46 4.26041E-02 0.00000E+00-4.45463E-03
 -1        47 4.28095E-02 0.00000E+00-1.54999E-03
 -1        48 4.26042E-02 0.00000E+00-4.45464E-03
 -1        49 4.54026E-02 0.00000E+00-1.63537E-03
 -1        50 4.52349E-02 0.00000E+00-3.94433E-03
 -1        51 4.54026E-02 0.00000E+00-1.63539E-03
 -1        52 4.52350E-02 0.00000E+00-3.94434E-03
 -1        53 4.73687E-02 0.00000E+00-1.69597E-03
 -1        54 4.72376E-02 0.00000E+00-3.44550E-03
 -1        55 4.73687E-02 0.00000E+00-1.69599E-03
 -1        56 4.72377E-02 0.00000E+00-3.44548E-03
 -1        57 4.87840E-02 0.00000E+00-1.73742E-03
 -1        58 4.86839E-02 0.00000E+00-2.99682E-03
 -1        59 4.87839E-02 0.00000E+00-1.73744E-03
 -1        60 4.86839E-02 0.00000E+00-2.99678E-03
 -1        61 4.97386E-02 0.00000E+00-1.76549E-03
 -1        62 4.96654E-02 0.00000E+00-2.61745E-03
 -1        63 4.97386E-02 0.00000E+00-1.76550E-03
 -1        64 4.96654E-02 0.00000E+00-2.61748E-03
 -1        65 5.03200E-02 0.00000E+00-1.78336E-03
 -1        66 5.02695E-02 0.00000E+00-2.31537E-03
 -1        67 5.03199E-02 0.00000E+00-1.78334E-03
 -1        68 5.02696E-02 0.00000E+00-2.31533E-03
 -1        69 5.06309E-02 0.00000E+00-1.79173E-03
 -1        70 5.05998E-02 0.00000E+00-2.09932E-03
 -1        71 5.06308E-02 0.00000E+00-1.79172E-03
 -1        72 5.05999E-02 0.00000E+00-2.09933E-03
 -1        73 5.07773E-02 0.00000E+00-1.79462E-03
 -1        74 5.07586E-02 0.00000E+00-1.96471E-03
 -1        75 5.07773E-02 0.00000E+00-1.79463E-03
 -1        76 5.07586E-02 0.00000E+00-1.96468E-03
 -1        77 5.08480E-02 0.00000E+00-1.79040E-03
 -1        78 5.08564E-02 0.00000E+00-1.89885E-03
 -1        79 5.08479E-02 0.00000E+00-1.79040E-03
 -1        80 5.08566E-02 0.00000E+00-1.89876E-03
 -1        81 5.09275E-02 0.00000E+00-1.78776E-03
 -1        82 5.08779E-02 0.00000E+00-1.85241E-03
 -1        83 5.09276E-02 0.00000E+00-1.78776E-03
 -1        84 5.08778E-02 0.00000E+00-1.85245E-03
 -1        85 0.00000E+00 0.00000E+00 0.00000E+00
 -1        86 1.41629E-03 0.00000E+00 1.52239E-03
 -1        87 0.00000E+00 0.00000E+00 0.00000E+00
 -1        88 1.41633E-03 0.00000E+00 1.52238E-03
 -1        89 3.89643E-03 0.00000E+00 2.76871E-03
 -1        90 3.89642E-03 0.00000E+00 2.76865E-03
 -1        91 7.50743E-03 0.00000E+00 3.61782E-03
 -1        92 7.50739E-03 0.00000E+00 3.61775E-03
 -1        93 1.18622E-02 0.00000E+00 4.11795E-03
 -1        94 1.18622E-02 0.00000E+00 4.11792E-03
 -1        95 1.66799E-02 0.00000E+00 4.30051E-03
 -1        96 1.66800E-02 0.00000E+00 4.30051E-03
 -1        97 2.16983E-02 0.00000E+00 4.20988E-03
 -1        98 2.16983E-02 0.00000E+00 4.20991E-03
 -1        99 2.66908E-02 0.00000E+00 3.88870E-03
 -1       100 2.66908E-02 0.00000E+00 3.88872E-03
 -1       101 3.14436E-02 0.00000E+00 3.38516E-03
 -1       102 3.14436E-02 0.00000E+00 3.38516E-03
 -1       103 3.57759E-02 0.00000E+00 2.76011E-03
 -1       104 3.57758E-02 0.00000E+00 2.76009E-03
 -1       105 3.95730E-02 0.00000E+00 2.07233E-03
 -1       106 3.95730E-02 0.00000E+00 2.07235E-03
 -1       107 4.27682E-02 0.00000E+00 1.36604E-03
 -1       108 4.27681E-02 0.00000E+00 1.36607E-03
 -1       109 4.53301E-02 0.00000E+00 6.81949E-04
 -1       110 4.53301E-02 0.00000E+00 6.81929E-04
 -1       111 4.72839E-02 0.00000E+00 6.03811E-05
 -1       112 4.72839E-02 0.00000E+00 6.03474E-05
 -1       113 4.87017E-02 0.00000E+00-4.73272E-04
 -1       114 4.87018E-02 0.00000E+00-4.73289E-04
 -1       115 4.96661E-02 0.00000E+00-9.11127E-04
 -1       116 4.96662E-02 0.00000E+00-9.11108E-04
 -1       117 5.02639E-02 0.00000E+00-1.24847E-03
 -1       118 5.02638E-02 0.00000E+00-1.24849E-03
 -1       119 5.05977E-02 0.00000E+00-1.48056E-03
 -1       120 5.05977E-02 0.00000E+00-1.48057E-03
 -1       121 5.07580E-02 0.00000E+00-1.61620E-03
 -1       122 5.07580E-02 0.00000E+00-1.61620E-03
 -1       123 5.08597E-02 0.00000E+00-1.67395E-03
 -1       124 5.08598E-02 0.00000E+00-1.67394E-03
 -1       125 5.08782E-02 0.00000E+00-1.68261E-03
 -1       126 5.08782E-02 0.00000E+00-1.68264E-03
 -3
    1PSTEP                        54          14           3          
  100CL  114 3.40000E-01         126                     1   14           1
 -4  STRESS      6    1
 -5  SXX         1    4    1    1
 -5  SYY         1    4    2    2
 -5  SZZ         1    4    3    3
 -5  SXY         1    4    1    2
 -5  SYZ         1    4    2    3
 -5  SZX         1    4    3    1
 -1         1-6.75790E+03-6.93041E+03-1.54032E+04-8.33877E-05 9.83441E-05 3.64789E+03
 -1         2 2.23097E+02 1.41325E+02 1.41370E+02 3.39705E-06-1.08087E-04 3.00581E+03
 -1         3 1.63998E+01 4.36209E+01 9.41468E+01-2.14345E-02 2.28316E-03 8.35848E+02
 -1         4-2.35501E+03-4.62810E+03-1.25352E+04 1.81238E-02-5.81124E-03 7.81406E+02
 -1         5-6.75795E+03-6.93046E+03-1.54033E+04-8.33999E-05 9.83462E-05 3.64799E+03
 -1         6 2.23100E+02 1.41343E+02 1.41411E+02 3.39733E-06-1.08087E-04 3.00568E+03
 -1         7 1.64110E+01 4.36019E+01 9.41052E+01-2.14345E-02 2.28316E-03 8.35843E+02
 -1         8-2.35416E+03-4.62774E+03-1.25349E+04 1.81238E-02-5.81125E-03 7.81415E+02
 -1         9 5.11252E+01 9.16135E+01 2.05508E+02-2.12967E-05-4.73100E-03 9.81859E+02
 -1        10-2.74710E+03-4.01105E+03-1.02609E+04 2.14940E-02-3.37837E-03 2.03450E+02
 -1        11 5.12899E+01 9.16445E+01 2.05447E+02-2.13012E-05-4.73100E-03 9.81895E+02
 -1        12-2.74667E+03-4.01088E+03-1.02607E+04 2.14941E-02-3.37838E-03 2.03397E+02
 -1        13 9.61005E+01 1.01076E+02 2.23221E+02-3.18278E-02-1.16847E-02 8.70865E+02
 -1        14-1.72675E+03-2.73253E+03-7.20475E+03 3.96903E-04-1.01959E-02 2.58414E+02
 -1        15 9.62883E+01 1.01143E+02 2.23262E+02-3.18279E-02-1.16847E-02 8.70848E+02
 -1        16-1.72616E+03-2.73232E+03-7.20465E+03 3.96912E-04-1.01959E-02 2.58340E+02
 -1        17 1.08067E+02 9.58782E+01 2.06934E+02-2.46297E-02-7.63721E-03 8.07931E+02
 -1        18-1.09124E+03-1.72946E+03-4.59919E+03-2.46118E-04-2.08583E-02 2.96955E+02
 -1        19 1.08252E+02 9.59765E+01 2.07082E+02-2.46298E-02-7.63723E-03 8.08018E+02
 -1        20-1.09072E+03-1.72925E+03-4.59901E+03-2.46121E-04-2.08583E-02 2.96959E+02
 -1        21 1.13365E+02 8.25535E+01 1.64336E+02 2.66557E-03-3.75797E-03 7.26907E+02
 -1        22-4.63823E+02-8.03880E+02-2.19444E+03 3.41143E-02-1.87972E-02 3.92956E+02
 -1        23 1.13667E+02 8.27071E+01 1.64547E+02 2.66558E-03-3.75798E-03 7.26904E+02
 -1        24-4.63093E+02-8.03536E+02-2.19403E+03 3.41145E-02-1.87972E-02 3.92905E+02
 -1        25 1.05216E+02 5.88814E+01 9.52106E+01-7.58150E-03 5.59359E-04 6.46901E+02
 -1        26 8.47534E+01 1.69817E+01-2.14655E+01 1.81317E-02-1.23951E-02 4.94543E+02
 -1        27 1.05441E+02 5.90170E+01 9.54373E+01-7.58150E-03 5.59364E-04 6.46820E+02
 -1        28 8.53748E+01 1.73055E+01-2.10083E+01 1.81318E-02-1.23952E-02 4.94412E+02
 -1        29 8.45009E+01 3.11108E+01 2.11058E+01 8.74231E-04 9.15147E-03 5.56261E+02
 -1        30 5.56396E+02 7.39807E+02 1.92866E+03 1.85719E-02 8.61163E-04 5.74701E+02
 -1        31 8.46447E+01 3.12104E+01 2.12922E+01 8.74231E-04 9.15147E-03 5.56263E+02
 -1        32 5.56938E+02 7.40130E+02 1.92920E+03 1.85719E-02 8.61164E-04 5.74689E+02
 -1        33 5.56418E+01 5.43815E+00-3.99499E+01 4.63248E-03 1.40605E-02 4.29777E+02
 -1        34 9.31094E+02 1.33370E+03 3.56137E+03 3.05387E-02 2.24152E-02 5.86416E+02
 -1        35 5.58877E+01 5.54770E+00-3.98323E+01 4.63249E-03 1.40605E-02 4.29785E+02
 -1        36 9.31740E+02 1.33404E+03 3.56186E+03 3.05388E-02 2.24152E-02 5.86454E+02
 -1        37 2.11869E+01-1.79136E+01-8.84754E+01-1.85941E-02 1.26259E-02 2.85927E+02
 -1        38 1.18885E+03 1.75780E+03 4.74634E+03 1.73237E-02 2.72325E-02 5.27646E+02
 -1        39 2.14367E+01-1.78263E+01-8.84373E+01-1.85941E-02 1.26259E-02 2.85943E+02
 -1        40 1.18949E+03 1.75803E+03 4.74645E+03 1.73238E-02 2.72325E-02 5.27673E+02
 -1        41-6.08223E+00-3.84882E+01-1.33700E+02-2.18348E-02 8.48776E-03 1.51707E+02
 -1        42 1.33793E+03 2.01077E+03 5.46130E+03 1.80921E-02 5.27882E-03 4.24159E+02
 -1        43-5.81083E+00-3.83988E+01-1.33676E+02-2.18349E-02 8.48776E-03 1.51692E+02
 -1        44 1.33861E+03 2.01097E+03 5.46130E+03 1.80922E-02 5.27881E-03 4.24119E+02
 -1        45-2.09304E+01-5.56041E+01-1.77284E+02-1.47677E-02 1.01185E-03 1.82723E+01
 -1        46 1.39159E+03 2.10589E+03 5.73281E+03 1.85372E-02-6.95263E-03 2.82134E+02
 -1        47-2.06579E+01-5.55220E+01-1.77288E+02-1.47677E-02 1.01185E-03 1.82708E+01
 -1        48 1.39223E+03 2.10613E+03 5.73298E+03 1.85372E-02-6.95263E-03 2.82118E+02
 -1        49-2.44595E+01-6.55058E+01-2.06309E+02 2.32094E-03-7.00555E-03-1.08133E+02
 -1        50 1.35740E+03 2.04817E+03 5.56769E+03 3.27886E-02-8.01076E-03 1.21898E+02
 -1        51-2.42698E+01-6.54543E+01-2.06332E+02 2.32094E-03-7.00555E-03-1.08092E+02
 -1        52 1.35811E+03 2.04851E+03 5.56812E+03 3.27887E-02-8.01076E-03 1.21946E+02
 -1        53-2.09538E+01-6.54636E+01-2.07915E+02-1.74348E-03-1.11083E-02-1.95239E+02
 -1        54 1.24355E+03 1.85961E+03 5.03476E+03 3.80221E-02 7.97944E-03-1.22461E+01
 -1        55-2.05258E+01-6.52855E+01-2.07753E+02-1.74349E-03-1.11083E-02-1.95220E+02
 -1        56 1.24449E+03 1.86008E+03 5.03540E+03 3.80223E-02 7.97947E-03-1.21721E+01
 -1        57-2.18550E+01-6.12125E+01-1.90085E+02-1.49594E-02-8.72548E-03-2.38708E+02
 -1        58 1.07038E+03 1.59014E+03 4.28802E+03 2.11409E-02 2.03432E-02-1.02087E+02
 -1        59-2.16912E+01-6.11271E+01-1.89969E+02-1.49594E-02-8.72549E-03-2.38641E+02
 -1        60 1.07101E+03 1.59035E+03 4.28807E+03 2.11410E-02 2.03432E-02-1.01937E+02
 -1        61-6.28394E+00-4.55454E+01-1.50432E+02-7.49514E-03-5.25223E-03-2.63184E+02
 -1        62 8.88809E+02 1.29712E+03 3.47350E+03 3.14013E-02-1.62908E-02-1.62745E+02
 -1        63-6.03395E+00-4.53951E+01-1.50182E+02-7.49514E-03-5.25222E-03-2.63329E+02
 -1        64 8.89609E+02 1.29746E+03 3.47382E+03 3.14015E-02-1.62909E-02-1.62866E+02
 -1        65 8.15722E+00-2.44521E+01-9.22760E+01-3.71311E-02 7.28556E-03-2.69093E+02
 -1        66 6.90392E+02 9.85674E+02 2.61762E+03 4.97654E-03 1.74084E-02-1.91359E+02
 -1        67 8.71377E+00-2.41897E+01-9.19622E+01-3.71312E-02 7.28556E-03-2.69063E+02
 -1        68 6.91297E+02 9.86076E+02 2.61806E+03 4.97656E-03 1.74084E-02-1.91297E+02
 -1        69-2.94032E+00-1.39634E+01-4.47026E+01-2.45285E-02 3.87089E-03-2.48488E+02
 -1        70 4.86030E+02 6.72714E+02 1.76704E+03 3.28725E-02-9.69903E-03-1.91632E+02
 -1        71-2.73280E+00-1.39066E+01-4.47238E+01-2.45285E-02 3.87088E-03-2.48401E+02
 -1        72 4.87234E+02 6.73228E+02 1.76756E+03 3.28726E-02-9.69903E-03-1.91679E+02
 -1        73 9.36843E+00 6.41067E+00 1.18058E+01-3.61464E-03-5.76551E-03-2.02270E+02
 -1        74 2.64247E+02 3.78240E+02 1.00011E+03 1.73304E-02 1.73075E-02-1.28003E+02
 -1        75 9.58083E+00 6.50226E+00 1.18981E+01-3.61465E-03-5.76552E-03-2.02253E+02
 -1        76 2.64921E+02 3.78663E+02 1.00085E+03 1.73304E-02 1.73076E-02-1.27765E+02
 -1        77-5.26888E-01 9.17298E+00 3.09016E+01-3.83984E-02 4.07683E-03-1.14846E+02
 -1        78 3.51500E+02 2.98864E+02 6.46344E+02 6.61716E-02 4.29002E-02-1.50309E+02
 -1        79-1.59301E-01 9.35771E+00 3.11481E+01-3.83984E-02 4.07680E-03-1.14512E+02
 -1        80 3.53514E+02 2.99622E+02 6.46861E+02 6.61721E-02 4.29003E-02-1.50278E+02
 -1        81 1.20289E+01 1.19800E+01 2.85929E+01 6.71452E-02 4.67634E-03-1.65536E+01
 -1        82-3.18565E+02-1.40719E+01 2.72537E+02-4.91023E-02-2.28368E-02-1.32303E+02
 -1        83 1.19670E+01 1.19546E+01 2.85751E+01 6.71452E-02 4.67646E-03-1.59535E+01
 -1        84-3.21594E+02-1.57098E+01 2.70109E+02-4.91021E-02-2.28366E-02-1.33157E+02
 -1        85 7.22603E+03 7.01158E+03 1.71802E+04 3.68609E-05 8.27930E-05 4.78640E+03
 -1        86 2.23655E+03 4.65860E+03 1.38971E+04 1.72528E-02-5.40206E-03 1.62834E+03
 -1        87 7.22599E+03 7.01154E+03 1.71801E+04 3.68720E-05 8.27915E-05 4.78651E+03
 -1        88 2.23563E+03 4.65814E+03 1.38964E+04 1.72527E-02-5.40205E-03 1.62838E+03
 -1        89 2.62846E+03 4.07190E+03 1.13709E+04-2.28220E-03-2.93560E-02 1.16423E+03
 -1        90 2.62836E+03 4.07178E+03 1.13706E+04-2.28220E-03-2.93560E-02 1.16425E+03
 -1        91 1.81003E+03 2.90014E+03 8.08527E+03-2.06435E-02-3.23959E-02 1.17271E+03
 -1        92 1.80984E+03 2.90008E+03 8.08527E+03-2.06435E-02-3.23959E-02 1.17281E+03
 -1        93 1.22123E+03 1.90976E+03 5.24996E+03-1.08719E-02-1.65885E-02 9.77669E+02
 -1        94 1.22110E+03 1.90977E+03 5.25015E+03-1.08719E-02-1.65885E-02 9.77834E+02
 -1        95 6.24190E+02 9.69522E+02 2.64223E+03 1.10842E-02-2.13072E-03 7.50588E+02
 -1        96 6.24160E+02 9.69585E+02 2.64247E+03 1.10842E-02-2.13072E-03 7.50635E+02
 -1        97 6.98995E+01 1.05630E+02 2.90314E+02 3.12162E-03 1.30244E-02 5.13895E+02
 -1        98 6.97577E+01 1.05615E+02 2.90406E+02 3.12161E-03 1.30244E-02 5.13834E+02
 -1        99-4.37672E+02-6.75826E+02-1.79962E+03 1.22903E-02 1.32390E-02 2.92236E+02
 -1       100-4.37971E+02-6.75991E+02-1.79987E+03 1.22903E-02 1.32390E-02 2.92221E+02
 -1       101-8.64621E+02-1.32755E+03-3.51655E+03 5.84459E-03-1.80908E-03 8.84098E+01
 -1       102-8.64778E+02-1.32768E+03-3.51682E+03 5.84459E-03-1.80908E-03 8.84248E+01
 -1       103-1.18773E+03-1.80735E+03-4.75924E+03-1.27904E-02-7.67062E-03-7.13897E+01
 -1       104-1.18782E+03-1.80737E+03-4.75920E+03-1.27904E-02-7.67063E-03-7.13187E+01
 -1       105-1.38871E+03-2.10865E+03-5.53564E+03-1.28348E-02 1.07933E-02-1.74703E+02
 -1       106-1.38879E+03-2.10863E+03-5.53548E+03-1.28348E-02 1.07933E-02-1.74708E+02
 -1       107-1.46410E+03-2.23760E+03-5.87610E+03-1.24700E-02 1.48143E-02-2.41476E+02
 -1       108-1.46423E+03-2.23770E+03-5.87632E+03-1.24700E-02 1.48143E-02-2.41494E+02
 -1       109-1.42363E+03-2.19211E+03-5.76875E+03 1.01046E-02-9.80773E-03-2.79525E+02
 -1       110-1.42394E+03-2.19233E+03-5.76915E+03 1.01046E-02-9.80771E-03-2.79488E+02
 -1       111-1.29526E+03-1.99916E+03-5.27285E+03-4.53339E-03-1.68437E-02-2.82216E+02
 -1       112-1.29520E+03-1.99913E+03-5.27281E+03-4.53339E-03-1.68437E-02-2.82189E+02
 -1       113-1.12428E+03-1.72261E+03-4.54651E+03 7.13600E-03-8.24137E-03-2.63647E+02
 -1       114-1.12462E+03-1.72269E+03-4.54644E+03 7.13599E-03-8.24138E-03-2.63588E+02
 -1       115-9.05658E+02-1.39248E+03-3.68868E+03 1.42768E-02 9.47820E-03-2.45753E+02
 -1       116-9.06130E+02-1.39269E+03-3.68890E+03 1.42768E-02 9.47819E-03-2.45990E+02
 -1       117-6.71291E+02-1.03186E+03-2.74179E+03-4.46154E-02-1.03032E-02-2.21206E+02
 -1       118-6.71206E+02-1.03186E+03-2.74188E+03-4.46154E-02-1.03032E-02-2.21121E+02
 -1       119-4.79401E+02-6.88284E+02-1.80299E+03 7.49536E-03-5.19905E-03-1.99808E+02
 -1       120-4.80037E+02-6.88537E+02-1.80320E+03 7.49535E-03-5.19904E-03-1.99628E+02
 -1       121-2.35224E+02-3.55101E+02-9.44982E+02-2.82233E-03-2.51688E-03-1.46441E+02
 -1       122-2.35207E+02-3.55075E+02-9.44912E+02-2.82231E-03-2.51688E-03-1.46376E+02
 -1       123-2.78350E+02-2.06670E+02-4.09415E+02 3.55902E-02 2.13946E-03-1.73176E+02
 -1       124-2.79946E+02-2.07379E+02-4.10179E+02 3.55901E-02 2.13947E-03-1.73280E+02
 -1       125 4.92080E+02 1.87865E+02 1.35628E+02-4.21392E-02-1.17785E-02-2.67327E+02
 -1       126 4.94252E+02 1.88721E+02 1.36317E+02-4.21394E-02-1.17785E-02-2.67699E+02
 -3
    1PSTEP                        55          14           3          
  100CL  114 3.40000E-01         126                     1   14           1
 -4  TOSTRAIN    6    1
 -5  EXX         1    4    1    1
 -5  EYY         1    4    2    2
 -5  EZZ         1    4    3    3
 -5  EXY         1    4    1    2
 -5  EYZ         1    4    2    3
 -5  EZX         1    4    3    1
 -1         1-8.05106E-05-3.21821E-16-2.92165E-02-1.67154E-10 5.96590E-14 1.30761E-02
 -1         2-8.09648E-05-6.98970E-16 5.31684E-04 2.69077E-11 1.34801E-13 9.77029E-03
 -1         3-6.68538E-04 3.28376E-15 7.81311E-04-6.98984E-08 5.34504E-09 2.69740E-03
 -1         4 7.02559E-03 1.86005E-15-2.68043E-02 5.94549E-08-1.78007E-08 3.75736E-03
 -1         5-8.05140E-05-3.21821E-16-2.92167E-02-1.67170E-10 5.96590E-14 1.30764E-02
 -1         6-8.09668E-05-6.98970E-16 5.31760E-04 2.69078E-11 1.34801E-13 9.76987E-03
 -1         7-6.68516E-04 3.28376E-15 7.81230E-04-6.98984E-08 5.34503E-09 2.69740E-03
 -1         8 7.02715E-03 1.86005E-15-2.68043E-02 5.94550E-08-1.78007E-08 3.75744E-03
 -1         9-6.76089E-04-3.64029E-15 1.00998E-03 8.34996E-10-1.55560E-08 3.13592E-03
 -1        10 3.82383E-03 7.64181E-15-2.09753E-02 7.05679E-08-7.26840E-09 2.11878E-03
 -1        11-6.75655E-04-3.64029E-15 1.00969E-03 8.34987E-10-1.55560E-08 3.13608E-03
 -1        12 3.82466E-03 7.64181E-15-2.09754E-02 7.05680E-08-7.26842E-09 2.11866E-03
 -1        13-5.52824E-04 1.95234E-14 9.60633E-04-1.00148E-07-4.54966E-08 2.76157E-03
 -1        14 2.97243E-03-2.23850E-15-1.47075E-02 3.78222E-09-3.35917E-08 2.22547E-03
 -1        15-5.52446E-04 1.95234E-14 9.60548E-04-1.00148E-07-4.54965E-08 2.76155E-03
 -1        16 2.97368E-03-2.23850E-15-1.47079E-02 3.78222E-09-3.35917E-08 2.22534E-03
 -1        17-4.73882E-04 1.07601E-14 8.76047E-04-7.74483E-08-3.17149E-08 2.55244E-03
 -1        18 1.78269E-03 4.64752E-15-9.23234E-03 5.31018E-09-6.84744E-08 1.98222E-03
 -1        19-4.73667E-04 1.07601E-14 8.76260E-04-7.74483E-08-3.17150E-08 2.55272E-03
 -1        20 1.78368E-03 4.64752E-15-9.23244E-03 5.31022E-09-6.84744E-08 1.98233E-03
 -1        21-3.71338E-04-3.33473E-15 7.25216E-04 9.81761E-09-1.13477E-08 2.30042E-03
 -1        22 7.97559E-04 2.54069E-14-4.26870E-03 1.16389E-07-5.06634E-08 1.80163E-03
 -1        23-3.70859E-04-3.33473E-15 7.25404E-04 9.81761E-09-1.13477E-08 2.30044E-03
 -1        24 7.98837E-04 2.54069E-14-4.26849E-03 1.16389E-07-5.06633E-08 1.80157E-03
 -1        25-2.72154E-04-1.14274E-15 5.26417E-04-2.47034E-08-5.64305E-10 2.06304E-03
 -1        26-1.03280E-04 6.51916E-15 1.80361E-04 6.26808E-08-3.43590E-08 1.61000E-03
 -1        27-2.71813E-04-1.14274E-15 5.26664E-04-2.47034E-08-5.64302E-10 2.06278E-03
 -1        28-1.02231E-04 6.51916E-15 1.80716E-04 6.26809E-08-3.43591E-08 1.60963E-03
 -1        29-1.89824E-04 6.67009E-16 3.22048E-04-1.02882E-10 2.98569E-08 1.79285E-03
 -1        30-9.22243E-04 4.72607E-15 4.13859E-03 5.97717E-08 8.47219E-09 1.39890E-03
 -1        31-1.89678E-04 6.67009E-16 3.22333E-04-1.02890E-10 2.98569E-08 1.79284E-03
 -1        32-9.21524E-04 4.72607E-15 4.13928E-03 5.97718E-08 8.47221E-09 1.39886E-03
 -1        33-1.19024E-04 2.02609E-15 1.35592E-04 1.08035E-08 4.68796E-08 1.40124E-03
 -1        34-1.60192E-03 2.59714E-14 7.40743E-03 9.20840E-08 8.06511E-08 1.09627E-03
 -1        35-1.18588E-04 2.02609E-15 1.35628E-04 1.08035E-08 4.68796E-08 1.40130E-03
 -1        36-1.60094E-03 2.59714E-14 7.40793E-03 9.20842E-08 8.06512E-08 1.09643E-03
 -1        37-6.78384E-05 6.47769E-15-2.17180E-05-6.35803E-08 3.61106E-08 9.45539E-04
 -1        38-2.08145E-03 1.50217E-14 9.74136E-03 4.88428E-08 9.16405E-08 7.46095E-04
 -1        39-6.73100E-05 6.47769E-15-2.18703E-05-6.35804E-08 3.61106E-08 9.45645E-04
 -1        40-2.08010E-03 1.50217E-14 9.74101E-03 4.88430E-08 9.16404E-08 7.46319E-04
 -1        41-1.79203E-05 8.54740E-15-1.64564E-04-7.26984E-08 2.25559E-08 5.16994E-04
 -1        42-2.35230E-03 8.48764E-16 1.11205E-02 5.74371E-08 2.09174E-08 4.18342E-04
 -1        43-1.73125E-05 8.54740E-15-1.64787E-04-7.26985E-08 2.25559E-08 5.17002E-04
 -1        44-2.35074E-03 8.48764E-16 1.11198E-02 5.74372E-08 2.09174E-08 4.18366E-04
 -1        45 4.64687E-05 1.47729E-15-3.04783E-04-4.80533E-08 4.72835E-10 8.81318E-05
 -1        46-2.42288E-03 3.56344E-15 1.16080E-02 6.14308E-08-1.87563E-08 8.77019E-05
 -1        47 4.70961E-05 1.47729E-15-3.05059E-04-4.80533E-08 4.72814E-10 8.81793E-05
 -1        48-2.42157E-03 3.56344E-15 1.16078E-02 6.14309E-08-1.87563E-08 8.77372E-05
 -1        49 1.10418E-04-1.15788E-15-4.10837E-04 8.61144E-09-2.23469E-08-3.23208E-04
 -1        50-2.29214E-03 2.01025E-14 1.12239E-02 1.07493E-07-2.06903E-08-2.32891E-04
 -1        51 1.10857E-04-1.15788E-15-4.11059E-04 8.61145E-09-2.23469E-08-3.23044E-04
 -1        52-2.29095E-03 2.01025E-14 1.12242E-02 1.07493E-07-2.06903E-08-2.32696E-04
 -1        53 1.44843E-04-1.02440E-15-4.42315E-04-4.37948E-09-3.62331E-08-6.12361E-04
 -1        54-2.01578E-03 2.40233E-14 1.01208E-02 1.22465E-07 2.99712E-08-4.61343E-04
 -1        55 1.45655E-04-1.02440E-15-4.42359E-04-4.37950E-09-3.62331E-08-6.12270E-04
 -1        56-2.01425E-03 2.40233E-14 1.01214E-02 1.22465E-07 2.99712E-08-4.61066E-04
 -1        57 1.34887E-04 1.65535E-15-4.10384E-04-4.79106E-08-2.95056E-08-7.61767E-04
 -1        58-1.68846E-03 7.70183E-15 8.61354E-03 6.70638E-08 6.72178E-08-5.83697E-04
 -1        59 1.35145E-04 1.65535E-15-4.10275E-04-4.79107E-08-2.95056E-08-7.61544E-04
 -1        60-1.68708E-03 7.70183E-15 8.61306E-03 6.70640E-08 6.72177E-08-5.83174E-04
 -1        61 1.34594E-04-3.63982E-15-3.38795E-04-2.40738E-08-1.76009E-08-8.47431E-04
 -1        62-1.32212E-03 1.54608E-14 6.96626E-03 1.02790E-07-5.07864E-08-6.61012E-04
 -1        63 1.34934E-04-3.63982E-15-3.38487E-04-2.40738E-08-1.76008E-08-8.47896E-04
 -1        64-1.32060E-03 1.54608E-14 6.96620E-03 1.02790E-07-5.07865E-08-6.61367E-04
 -1        65 1.11477E-04 2.48110E-14-2.21393E-04-1.20839E-07 2.24215E-08-8.71158E-04
 -1        66-9.54723E-04-5.24167E-15 5.23987E-03 1.56918E-08 5.63670E-08-6.80061E-04
 -1        67 1.12439E-04 2.48110E-14-2.21220E-04-1.20839E-07 2.24215E-08-8.71051E-04
 -1        68-9.53086E-04-5.24167E-15 5.24000E-03 1.56919E-08 5.63670E-08-6.79844E-04
 -1        69 3.95421E-05 4.63174E-15-1.01934E-04-7.97630E-08 1.21128E-08-8.06861E-04
 -1        70-6.03272E-04 9.21623E-15 3.52521E-03 1.06952E-07-3.07281E-08-6.42844E-04
 -1        71 4.00367E-05 4.63174E-15-1.02185E-04-7.97631E-08 1.21128E-08-8.06575E-04
 -1        72-6.01032E-04 9.21623E-15 3.52521E-03 1.06952E-07-3.07281E-08-6.42981E-04
 -1        73 1.16501E-05-1.57364E-15 1.55093E-05-1.16979E-08-1.87584E-08-6.57230E-04
 -1        74-3.68569E-04 5.10635E-15 2.00998E-03 5.61791E-08 5.63263E-08-4.21754E-04
 -1        75 1.20420E-05-1.57364E-15 1.55134E-05-1.16979E-08-1.87584E-08-6.57171E-04
 -1        76-3.67754E-04 5.10635E-15 2.01101E-03 5.61791E-08 5.63263E-08-4.20980E-04
 -1        77-3.00009E-05-7.35599E-15 6.94852E-05-1.24809E-07 1.29891E-08-3.73551E-04
 -1        78 1.71959E-04 6.88854E-14 1.12451E-03 2.14804E-07 1.39679E-07-4.88891E-04
 -1        79-2.94063E-05-7.35599E-15 6.96908E-05-1.24809E-07 1.29891E-08-3.72464E-04
 -1        80 1.76034E-04 6.88854E-14 1.12372E-03 2.14804E-07 1.39679E-07-4.88779E-04
 -1        81-1.28744E-06 3.53727E-14 5.38773E-05 2.18198E-07 1.55905E-08-5.33978E-05
 -1        82-9.90437E-04-1.90410E-14 9.29110E-04-1.59615E-07-7.44126E-08-4.32298E-04
 -1        83-1.42258E-06 3.53727E-14 5.39081E-05 2.18198E-07 1.55909E-08-5.14472E-05
 -1        84-9.94969E-04-1.90410E-14 9.26543E-04-1.59615E-07-7.44123E-08-4.35082E-04
 -1        85-8.14189E-05-2.52013E-16 3.12303E-02-2.50338E-12 4.18490E-14 1.41627E-02
 -1        86-8.36267E-03 3.70135E-16 2.88218E-02 5.67530E-08-1.54228E-08 3.88206E-03
 -1        87-8.14196E-05-2.52013E-16 3.12301E-02-2.48812E-12 4.18490E-14 1.41630E-02
 -1        88-8.36418E-03 3.70135E-16 2.88212E-02 5.67529E-08-1.54228E-08 3.88218E-03
 -1        89-5.17601E-03 1.31602E-14 2.30592E-02-1.73369E-09-9.29879E-08 2.07184E-03
 -1        90-5.17597E-03 1.31602E-14 2.30586E-02-1.73376E-09-9.29879E-08 2.07195E-03
 -1        91-4.07808E-03 2.64203E-14 1.67682E-02-5.84246E-08-1.07711E-07 2.17618E-03
 -1        92-4.07857E-03 2.64203E-14 1.67684E-02-5.84246E-08-1.07711E-07 2.17646E-03
 -1        93-2.73045E-03 5.37358E-15 1.10632E-02-3.01900E-08-5.60654E-08 1.94450E-03
 -1        94-2.73101E-03 5.37358E-15 1.10639E-02-3.01900E-08-5.60654E-08 1.94492E-03
 -1        95-1.54023E-03 8.07349E-16 5.76006E-03 3.65214E-08-3.48872E-09 1.75533E-03
 -1        96-1.54056E-03 8.07349E-16 5.76066E-03 3.65214E-08-3.48871E-09 1.75539E-03
 -1        97-4.41028E-04 2.21806E-15 9.03323E-04 5.85480E-09 4.30821E-08 1.56535E-03
 -1        98-4.41395E-04 2.21806E-15 9.03626E-04 5.85478E-09 4.30821E-08 1.56508E-03
 -1        99 5.42596E-04 5.94573E-15-3.46156E-03 3.55641E-08 4.68400E-08 1.36088E-03
 -1       100 5.42168E-04 5.94573E-15-3.46184E-03 3.55641E-08 4.68400E-08 1.36082E-03
 -1       101 1.36387E-03-1.09384E-15-7.09015E-03 1.94755E-08-4.16111E-09 1.06563E-03
 -1       102 1.36377E-03-1.09384E-15-7.09060E-03 1.94755E-08-4.16112E-09 1.06571E-03
 -1       103 1.94577E-03 2.00623E-15-9.73109E-03-3.94727E-08-2.84809E-08 7.19311E-04
 -1       104 1.94548E-03 2.00623E-15-9.73088E-03-3.94727E-08-2.84809E-08 7.19505E-04
 -1       105 2.31646E-03 5.29751E-15-1.13912E-02-4.42077E-08 3.25702E-08 3.87815E-04
 -1       106 2.31611E-03 5.29751E-15-1.13907E-02-4.42077E-08 3.25703E-08 3.87741E-04
 -1       107 2.51582E-03 5.53494E-15-1.21414E-02-4.33634E-08 4.64474E-08 5.44166E-05
 -1       108 2.51576E-03 5.53494E-15-1.21418E-02-4.33635E-08 4.64473E-08 5.43759E-05
 -1       109 2.51298E-03 1.67270E-15-1.19440E-02 3.43085E-08-3.07840E-08-2.59261E-04
 -1       110 2.51267E-03 1.67270E-15-1.19446E-02 3.43085E-08-3.07839E-08-2.59117E-04
 -1       111 2.30546E-03 5.96835E-15-1.09114E-02-1.28778E-08-5.60506E-08-4.73734E-04
 -1       112 2.30556E-03 5.96835E-15-1.09113E-02-1.28778E-08-5.60506E-08-4.73641E-04
 -1       113 1.95824E-03 6.42014E-17-9.38001E-03 2.38138E-08-2.65043E-08-5.87859E-04
 -1       114 1.95737E-03 6.42014E-17-9.37948E-03 2.38137E-08-2.65043E-08-5.87697E-04
 -1       115 1.59131E-03-3.04949E-15-7.59704E-03 4.59419E-08 3.17544E-08-6.55341E-04
 -1       116 1.59047E-03-3.04949E-15-7.59709E-03 4.59419E-08 3.17543E-08-6.56141E-04
 -1       117 1.17768E-03 3.24920E-14-5.63310E-03-1.44822E-07-3.52727E-08-6.55264E-04
 -1       118 1.17796E-03 3.24920E-14-5.63340E-03-1.44822E-07-3.52727E-08-6.54984E-04
 -1       119 6.82356E-04-6.35869E-15-3.65739E-03 2.44209E-08-1.67506E-08-6.27927E-04
 -1       120 6.81105E-04-6.35869E-15-3.65723E-03 2.44209E-08-1.67505E-08-6.27347E-04
 -1       121 3.91869E-04-6.62779E-16-1.92842E-03-9.16268E-09-8.23503E-09-4.70237E-04
 -1       122 3.91838E-04-6.62779E-16-1.92828E-03-9.16265E-09-8.23504E-09-4.70026E-04
 -1       123-2.31961E-04 5.46475E-15-6.62857E-04 1.15676E-07 7.23720E-09-5.62755E-04
 -1       124-2.34847E-04 5.46475E-15-6.63038E-04 1.15676E-07 7.23719E-09-5.63103E-04
 -1       125 9.87862E-04-4.70631E-15-1.73374E-04-1.36807E-07-3.85697E-08-8.65454E-04
 -1       126 9.92124E-04-4.70631E-15-1.73923E-04-1.36807E-07-3.85697E-08-8.66647E-04
 -3
    1PSTEP                        56          14           3          
  100CL  114 3.40000E-01         126                     1   14           1
 -4  ERROR       1    1
 -5  STR(%)      1    1    0    0
 -1         1 6.43487E+01
 -1         2 6.43487E+01
 -1         3 6.46934E+01
 -1         4 6.46934E+01
 -1         5 6.43487E+01
 -1         6 6.43487E+01
 -1         7 6.46934E+01
 -1         8 6.46934E+01
 -1         9 6.61204E+01
 -1        10 6.61204E+01
 -1        11 6.61204E+01
 -1        12 6.61204E+01
 -1        13 6.61204E+01
 -1        14 6.61204E+01
 -1        15 6.61204E+01
 -1        16 6.61204E+01
 -1        17 6.57917E+01
 -1        18 6.57917E+01
 -1        19 6.57917E+01
 -1        20 6.57917E+01
 -1        21 6.58074E+01
 -1        22 6.58074E+01
 -1        23 6.58074E+01
 -1        24 6.58074E+01
 -1        25 6.58074E+01
 -1        26 6.58074E+01
 -1        27 6.58074E+01
 -1        28 6.58074E+01
 -1        29 5.68259E+01
 -1        30 5.44401E+01
 -1        31 5.68259E+01
 -1        32 5.44401E+01
 -1        33 6.15949E+01
 -1        34 6.15949E+01
 -1        35 6.15949E+01
 -1        36 6.15949E+01
 -1        37 6.23597E+01
 -1        38 6.23597E+01
 -1        39 6.23597E+01
 -1        40 6.23597E+01
 -1        41 6.23597E+01
 -1        42 6.23597E+01
 -1        43 6.23597E+01
 -1        44 6.23597E+01
 -1        45 6.20597E+01
 -1        46 6.20597E+01
 -1        47 6.20597E+01
 -1        48 6.20597E+01
 -1        49 6.40541E+01
 -1        50 6.40541E+01
 -1        51 6.40541E+01
 -1        52 6.40541E+01
 -1        53 6.51734E+01
 -1        54 6.51734E+01
 -1        55 6.51734E+01
 -1        56 6.51734E+01
 -1        57 6.56707E+01
 -1        58 6.56707E+01
 -1        59 6.56707E+01
 -1        60 6.56707E+01
 -1        61 6.56707E+01
 -1        62 6.56707E+01
 -1        63 6.56707E+01
 -1        64 6.56707E+01
 -1        65 6.52247E+01
 -1        66 6.52247E+01
 -1        67 6.52247E+01
 -1        68 6.52247E+01
 -1        69 6.23608E+01
 -1        70 6.23608E+01
 -1        71 6.23608E+01
 -1        72 6.23608E+01
 -1        73 5.82604E+01
 -1        74 5.82604E+01
 -1        75 5.82604E+01
 -1        76 5.82604E+01
 -1        77 8.42667E+01
 -1        78 8.42667E+01
 -1        79 8.42667E+01
 -1        80 8.42667E+01
 -1        81 8.42667E+01
 -1        82 8.42667E+01
 -1        83 8.42667E+01
 -1        84 8.42667E+01
 -1        85 6.31627E+01
 -1        86 6.31627E+01
 -1        87 6.31627E+01
 -1        88 6.31627E+01
 -1        89 5.94376E+01
 -1        90 5.94376E+01
 -1        91 5.87720E+01
 -1        92 5.87720E+01
 -1        93 5.61273E+01
 -1        94 5.61273E+01
 -1        95 4.98004E+01
 -1        96 4.98004E+01
 -1        97 2.49822E+01
 -1        98 2.49822E+01
 -1        99 5.68259E+01
 -1       100 5.68259E+01
 -1       101 6.14163E+01
 -1       102 6.14163E+01
 -1       103 6.14163E+01
 -1       104 6.14163E+01
 -1       105 6.00119E+01
 -1       106 6.00119E+01
 -1       107 5.80868E+01
 -1       108 5.80868E+01
 -1       109 5.74835E+01
 -1       110 5.74835E+01
 -1       111 5.76709E+01
 -1       112 5.76709E+01
 -1       113 5.77932E+01
 -1       114 5.77932E+01
 -1       115 5.78389E+01
 -1       116 5.78389E+01
 -1       117 5.78389E+01
 -1       118 5.78389E+01
 -1       119 5.70552E+01
 -1       120 5.70552E+01
 -1       121 5.46573E+01
 -1       122 5.46573E+01
 -1       123 5.02207E+01
 -1       124 5.02207E+01
 -1       125 5.02207E+01
 -1       126 5.02207E+01
 -3
    1PSTEP                        57          15           3          
  100CL  115 3.50000E-01         126                     1   15           1
 -4  DISP        4    1
 -5  D1          1    2    1    0
 -5  D2          1    2    2    0
 -5  D3          1    2    3    0
 -5  ALL         1    2    0    0    1ALL
 -1         1 0.00000E+00 0.00000E+00 0.00000E+00
 -1         2 0.00000E+00 0.00000E+00 0.00000E+00
 -1         3 1.05791E-03 0.00000E+00-4.80332E-06
 -1         4 1.41508E-03 0.00000E+00-1.59750E-03
 -1         5 0.00000E+00 0.00000E+00 0.00000E+00
 -1         6 0.00000E+00 0.00000E+00 0.00000E+00
 -1         7 1.05792E-03 0.00000E+00-4.82011E-06
 -1         8 1.41499E-03 0.00000E+00-1.59748E-03
 -1         9 3.76761E-03 0.00000E+00-4.90260E-05
 -1        10 3.89299E-03 0.00000E+00-2.95404E-03
 -1        11 3.76758E-03 0.00000E+00-4.90291E-05
 -1        12 3.89288E-03 0.00000E+00-2.95403E-03
 -1        13 7.50040E-03 0.00000E+00-1.54691E-04
 -1        14 7.51464E-03 0.00000E+00-4.01263E-03
 -1        15 7.50044E-03 0.00000E+00-1.54690E-04
 -1        16 7.51458E-03 0.00000E+00-4.01261E-03
 -1        17 1.20150E-02 0.00000E+00-3.22853E-04
 -1        18 1.19119E-02 0.00000E+00-4.84054E-03
 -1        19 1.20150E-02 0.00000E+00-3.22857E-04
 -1        20 1.19118E-02 0.00000E+00-4.84052E-03
 -1        21 1.70348E-02 0.00000E+00-5.38691E-04
 -1        22 1.68401E-02 0.00000E+00-5.44483E-03
 -1        23 1.70348E-02 0.00000E+00-5.38680E-04
 -1        24 1.68399E-02 0.00000E+00-5.44481E-03
 -1        25 2.22990E-02 0.00000E+00-7.81621E-04
 -1        26 2.20402E-02 0.00000E+00-5.82289E-03
 -1        27 2.22990E-02 0.00000E+00-7.81607E-04
 -1        28 2.20401E-02 0.00000E+00-5.82288E-03
 -1        29 2.75536E-02 0.00000E+00-1.02887E-03
 -1        30 2.72606E-02 0.00000E+00-5.97563E-03
 -1        31 2.75536E-02 0.00000E+00-1.02888E-03
 -1        32 2.72605E-02 0.00000E+00-5.97561E-03
 -1        33 3.25707E-02 0.00000E+00-1.25875E-03
 -1        34 3.22709E-02 0.00000E+00-5.91861E-03
 -1        35 3.25707E-02 0.00000E+00-1.25875E-03
 -1        36 3.22708E-02 0.00000E+00-5.91860E-03
 -1        37 3.71707E-02 0.00000E+00-1.45731E-03
 -1        38 3.68868E-02 0.00000E+00-5.68348E-03
 -1        39 3.71707E-02 0.00000E+00-1.45730E-03
 -1        40 3.68867E-02 0.00000E+00-5.68350E-03
 -1        41 4.12281E-02 0.00000E+00-1.61939E-03
 -1        42 4.09746E-02 0.00000E+00-5.31171E-03
 -1        43 4.12281E-02 0.00000E+00-1.61939E-03
 -1        44 4.09745E-02 0.00000E+00-5.31172E-03
 -1        45 4.46688E-02 0.00000E+00-1.74468E-03
 -1        46 4.44525E-02 0.00000E+00-4.84977E-03
 -1        47 4.46688E-02 0.00000E+00-1.74469E-03
 -1        48 4.44524E-02 0.00000E+00-4.84978E-03
 -1        49 4.74656E-02 0.00000E+00-1.83635E-03
 -1        50 4.72887E-02 0.00000E+00-4.34616E-03
 -1        51 4.74657E-02 0.00000E+00-1.83634E-03
 -1        52 4.72886E-02 0.00000E+00-4.34616E-03
 -1        53 4.96345E-02 0.00000E+00-1.90042E-03
 -1        54 4.94960E-02 0.00000E+00-3.85046E-03
 -1        55 4.96345E-02 0.00000E+00-1.90040E-03
 -1        56 4.94959E-02 0.00000E+00-3.85045E-03
 -1        57 5.12462E-02 0.00000E+00-1.94416E-03
 -1        58 5.11424E-02 0.00000E+00-3.40299E-03
 -1        59 5.12462E-02 0.00000E+00-1.94413E-03
 -1        60 5.11423E-02 0.00000E+00-3.40303E-03
 -1        61 5.23983E-02 0.00000E+00-1.97170E-03
 -1        62 5.23222E-02 0.00000E+00-3.02447E-03
 -1        63 5.23983E-02 0.00000E+00-1.97167E-03
 -1        64 5.23221E-02 0.00000E+00-3.02446E-03
 -1        65 5.31949E-02 0.00000E+00-1.98546E-03
 -1        66 5.31396E-02 0.00000E+00-2.72284E-03
 -1        67 5.31949E-02 0.00000E+00-1.98544E-03
 -1        68 5.31395E-02 0.00000E+00-2.72285E-03
 -1        69 5.37254E-02 0.00000E+00-1.99012E-03
 -1        70 5.36892E-02 0.00000E+00-2.49376E-03
 -1        71 5.37254E-02 0.00000E+00-1.99012E-03
 -1        72 5.36891E-02 0.00000E+00-2.49377E-03
 -1        73 5.40691E-02 0.00000E+00-1.98769E-03
 -1        74 5.40441E-02 0.00000E+00-2.32881E-03
 -1        75 5.40691E-02 0.00000E+00-1.98767E-03
 -1        76 5.40441E-02 0.00000E+00-2.32884E-03
 -1        77 5.42894E-02 0.00000E+00-1.97899E-03
 -1        78 5.42930E-02 0.00000E+00-2.23501E-03
 -1        79 5.42895E-02 0.00000E+00-1.97899E-03
 -1        80 5.42929E-02 0.00000E+00-2.23516E-03
 -1        81 5.44992E-02 0.00000E+00-1.97568E-03
 -1        82 5.44484E-02 0.00000E+00-2.17594E-03
 -1        83 5.44990E-02 0.00000E+00-1.97571E-03
 -1        84 5.44485E-02 0.00000E+00-2.17596E-03
 -1        85 0.00000E+00 0.00000E+00 0.00000E+00
 -1        86 1.50015E-03 0.00000E+00 1.56434E-03
 -1        87 0.00000E+00 0.00000E+00 0.00000E+00
 -1        88 1.50013E-03 0.00000E+00 1.56436E-03
 -1        89 4.10175E-03 0.00000E+00 2.82313E-03
 -1        90 4.10178E-03 0.00000E+00 2.82320E-03
 -1        91 7.84712E-03 0.00000E+00 3.67013E-03
 -1        92 7.84719E-03 0.00000E+00 3.67017E-03
 -1        93 1.23528E-02 0.00000E+00 4.17008E-03
 -1        94 1.23528E-02 0.00000E+00 4.17010E-03
 -1        95 1.73530E-02 0.00000E+00 4.35228E-03
 -1        96 1.73531E-02 0.00000E+00 4.35229E-03
 -1        97 2.25766E-02 0.00000E+00 4.25494E-03
 -1        98 2.25766E-02 0.00000E+00 4.25494E-03
 -1        99 2.77736E-02 0.00000E+00 3.92311E-03
 -1       100 2.77737E-02 0.00000E+00 3.92308E-03
 -1       101 3.27236E-02 0.00000E+00 3.41246E-03
 -1       102 3.27237E-02 0.00000E+00 3.41243E-03
 -1       103 3.72541E-02 0.00000E+00 2.78229E-03
 -1       104 3.72542E-02 0.00000E+00 2.78230E-03
 -1       105 4.12479E-02 0.00000E+00 2.08635E-03
 -1       106 4.12479E-02 0.00000E+00 2.08634E-03
 -1       107 4.46382E-02 0.00000E+00 1.37221E-03
 -1       108 4.46383E-02 0.00000E+00 1.37218E-03
 -1       109 4.74018E-02 0.00000E+00 6.82455E-04
 -1       110 4.74019E-02 0.00000E+00 6.82447E-04
 -1       111 4.95559E-02 0.00000E+00 5.50492E-05
 -1       112 4.95559E-02 0.00000E+00 5.50476E-05
 -1       113 5.11670E-02 0.00000E+00-4.82165E-04
 -1       114 5.11671E-02 0.00000E+00-4.82165E-04
 -1       115 5.23298E-02 0.00000E+00-9.15599E-04
 -1       116 5.23298E-02 0.00000E+00-9.15626E-04
 -1       117 5.31428E-02 0.00000E+00-1.24552E-03
 -1       118 5.31429E-02 0.00000E+00-1.24552E-03
 -1       119 5.36880E-02 0.00000E+00-1.48288E-03
 -1       120 5.36880E-02 0.00000E+00-1.48286E-03
 -1       121 5.40436E-02 0.00000E+00-1.63721E-03
 -1       122 5.40436E-02 0.00000E+00-1.63718E-03
 -1       123 5.42946E-02 0.00000E+00-1.71661E-03
 -1       124 5.42945E-02 0.00000E+00-1.71659E-03
 -1       125 5.44505E-02 0.00000E+00-1.73489E-03
 -1       126 5.44506E-02 0.00000E+00-1.73490E-03
 -3
    1PSTEP                        58          15           3          
  100CL  115 3.50000E-01         126                     1   15           1
 -4  STRESS      6    1
 -5  SXX         1    4    1    1
 -5  SYY         1    4    2    2
 -5  SZZ         1    4    3    3
 -5  SXY         1    4    1    2
 -5  SYZ         1    4    2    3
 -5  SZX         1    4    3    1
 -1         1-7.19487E+03-7.39822E+03-1.63813E+04 1.95132E-04-2.48990E-04 3.92033E+03
 -1         2 1.28358E+02 2.95147E+01-1.37996E+02-4.45452E-05 1.93963E-05 3.25054E+03
 -1         3 6.97806E+01-6.07992E+00-1.29190E+02 3.23016E-03-8.60562E-03 9.26303E+02
 -1         4-2.39761E+03-4.86176E+03-1.32030E+04-4.39014E-02 1.01643E-02 8.55231E+02
 -1         5-7.19480E+03-7.39813E+03-1.63811E+04 1.95096E-04-2.48982E-04 3.92009E+03
 -1         6 1.28286E+02 2.94378E+01-1.38175E+02-4.45441E-05 1.93957E-05 3.25055E+03
 -1         7 6.94031E+01-6.23684E+00-1.29363E+02 3.23016E-03-8.60563E-03 9.26264E+02
 -1         8-2.39864E+03-4.86220E+03-1.32034E+04-4.39012E-02 1.01643E-02 8.55196E+02
 -1         9 8.72934E+01 4.68052E+01 1.49375E+01-1.49409E-02-1.83244E-03 1.02041E+03
 -1        10-2.80058E+03-4.17042E+03-1.07024E+04-5.31583E-02 3.35473E-03 1.93890E+02
 -1        11 8.66239E+01 4.65441E+01 1.47386E+01-1.49408E-02-1.83244E-03 1.02038E+03
 -1        12-2.80142E+03-4.17079E+03-1.07028E+04-5.31581E-02 3.35470E-03 1.93970E+02
 -1        13 1.27965E+02 7.44202E+01 1.00267E+02 1.93426E-02 1.49734E-04 8.68640E+02
 -1        14-1.75783E+03-2.84741E+03-7.53811E+03-3.04553E-02 5.60788E-03 2.27909E+02
 -1        15 1.27267E+02 7.41269E+01 9.99788E+01 1.93425E-02 1.49738E-04 8.68665E+02
 -1        16-1.75886E+03-2.84784E+03-7.53851E+03-3.04551E-02 5.60786E-03 2.27990E+02
 -1        17 1.47422E+02 8.85219E+01 1.42204E+02 7.09382E-03-2.08865E-03 8.08737E+02
 -1        18-1.11266E+03-1.82340E+03-4.88087E+03-4.38432E-02 9.95439E-03 2.67491E+02
 -1        19 1.46605E+02 8.81885E+01 1.41906E+02 7.09379E-03-2.08866E-03 8.08669E+02
 -1        20-1.11377E+03-1.82387E+03-4.88134E+03-4.38430E-02 9.95439E-03 2.67477E+02
 -1        21 1.49876E+02 9.13070E+01 1.57119E+02-9.49887E-03 5.94994E-03 7.53741E+02
 -1        22-4.77479E+02-8.61756E+02-2.37009E+03-6.90988E-02 8.79250E-03 3.90383E+02
 -1        23 1.48959E+02 9.09376E+01 1.56804E+02-9.49883E-03 5.94994E-03 7.53779E+02
 -1        24-4.78738E+02-8.62305E+02-2.37066E+03-6.90984E-02 8.79246E-03 3.90445E+02
 -1        25 1.44480E+02 8.55602E+01 1.45400E+02 8.32925E-03 7.15446E-03 6.82678E+02
 -1        26 9.55957E+01 1.21725E+01-4.74856E+01-4.02134E-02 7.73652E-03 5.15478E+02
 -1        27 1.43760E+02 8.52226E+01 1.44996E+02 8.32923E-03 7.15446E-03 6.82811E+02
 -1        28 9.46490E+01 1.17752E+01-4.78610E+01-4.02132E-02 7.73647E-03 5.15650E+02
 -1        29 1.21791E+02 6.92768E+01 1.11544E+02 2.27712E-02-4.41738E-03 5.76523E+02
 -1        30 5.81063E+02 7.65664E+02 1.99169E+03-2.24029E-02 1.26980E-02 5.95906E+02
 -1        31 1.21086E+02 6.89409E+01 1.11132E+02 2.27711E-02-4.41737E-03 5.76603E+02
 -1        32 5.80103E+02 7.65247E+02 1.99125E+03-2.24028E-02 1.26979E-02 5.96007E+02
 -1        33 8.47399E+01 4.46062E+01 6.16521E+01 2.22306E-03-3.04121E-03 4.40660E+02
 -1        34 9.52288E+02 1.36070E+03 3.63236E+03-4.90338E-02 8.50877E-03 6.06291E+02
 -1        35 8.38538E+01 4.42412E+01 6.13231E+01 2.22305E-03-3.04120E-03 4.40700E+02
 -1        36 9.51095E+02 1.36013E+03 3.63164E+03-4.90335E-02 8.50874E-03 6.06311E+02
 -1        37 5.37399E+01 1.79339E+01-1.39812E+00 4.38915E-03 3.62488E-03 2.92684E+02
 -1        38 1.21726E+03 1.78609E+03 4.81497E+03-4.54829E-02-8.94761E-03 5.48530E+02
 -1        39 5.29527E+01 1.76040E+01-1.70831E+00 4.38914E-03 3.62487E-03 2.92685E+02
 -1        40 1.21618E+03 1.78559E+03 4.81439E+03-4.54827E-02-8.94759E-03 5.48500E+02
 -1        41 3.08596E+01-7.96137E+00-6.87571E+01 9.81257E-03-9.82465E-04 1.49585E+02
 -1        42 1.37523E+03 2.04112E+03 5.52797E+03-4.05355E-02-7.35665E-03 4.39544E+02
 -1        43 3.01403E+01-8.28663E+00-6.91190E+01 9.81254E-03-9.82464E-04 1.49574E+02
 -1        44 1.37420E+03 2.04069E+03 5.52757E+03-4.05353E-02-7.35664E-03 4.39510E+02
 -1        45 1.38748E+01-2.85521E+01-1.22166E+02 1.54809E-03-2.84919E-03 1.87648E+01
 -1        46 1.42789E+03 2.13299E+03 5.78894E+03-5.14681E-02-5.28130E-03 2.99734E+02
 -1        47 1.30714E+01-2.88871E+01-1.22478E+02 1.54808E-03-2.84919E-03 1.88283E+01
 -1        48 1.42683E+03 2.13256E+03 5.78855E+03-5.14678E-02-5.28131E-03 2.99763E+02
 -1        49 5.53751E+00-3.99015E+01-1.51016E+02 1.67202E-02 3.45720E-03-1.01572E+02
 -1        50 1.38587E+03 2.07258E+03 5.62279E+03-3.33053E-02-3.52202E-05 1.44100E+02
 -1        51 4.88808E+00-4.01476E+01-1.51182E+02 1.67201E-02 3.45721E-03-1.01523E+02
 -1        52 1.38488E+03 2.07218E+03 5.62244E+03-3.33052E-02-3.52250E-05 1.44122E+02
 -1        53 3.90768E+00-4.29316E+01-1.57587E+02 9.08429E-03 1.06084E-02-1.95885E+02
 -1        54 1.26692E+03 1.88317E+03 5.09208E+03-4.25806E-02 2.37019E-03 1.72007E+00
 -1        55 3.13456E+00-4.32376E+01-1.57831E+02 9.08425E-03 1.06083E-02-1.95888E+02
 -1        56 1.26576E+03 1.88262E+03 5.09141E+03-4.25804E-02 2.37020E-03 1.65933E+00
 -1        57 1.66479E+01-3.27778E+01-1.33786E+02 8.62897E-03 1.38295E-02-2.44103E+02
 -1        58 1.10554E+03 1.61657E+03 4.34259E+03-4.01157E-02-2.10850E-02-9.60448E+01
 -1        59 1.60100E+01-3.30282E+01-1.33980E+02 8.62894E-03 1.38295E-02-2.44206E+02
 -1        60 1.10457E+03 1.61618E+03 4.34225E+03-4.01154E-02-2.10849E-02-9.62832E+01
 -1        61 2.35357E+01-1.64141E+01-8.35137E+01-6.85685E-03 1.94022E-02-2.47771E+02
 -1        62 9.11522E+02 1.31519E+03 3.51171E+03-5.38935E-02 9.75346E-03-1.41814E+02
 -1        63 2.31070E+01-1.66083E+01-8.37324E+01-6.85682E-03 1.94022E-02-2.47678E+02
 -1        64 9.10603E+02 1.31483E+03 3.51143E+03-5.38932E-02 9.75346E-03-1.41812E+02
 -1        65 1.62580E+01-3.72218E+00-3.16801E+01 1.51274E-02 1.05023E-02-2.31564E+02
 -1        66 7.06005E+02 1.01583E+03 2.70372E+03-2.26903E-02-7.65581E-03-1.53198E+02
 -1        67 1.55189E+01-4.09051E+00-3.21672E+01 1.51273E-02 1.05023E-02-2.31489E+02
 -1        68 7.05162E+02 1.01544E+03 2.70325E+03-2.26902E-02-7.65579E-03-1.53228E+02
 -1        69 3.54559E+01 1.85701E+01 2.49813E+01 2.20496E-02-6.06108E-04-2.10478E+02
 -1        70 5.53445E+02 7.62917E+02 2.00292E+03-2.87539E-02-4.20764E-03-1.52287E+02
 -1        71 3.50723E+01 1.84046E+01 2.48167E+01 2.20495E-02-6.06121E-04-2.10581E+02
 -1        72 5.52352E+02 7.62433E+02 2.00240E+03-2.87538E-02-4.20763E-03-1.52296E+02
 -1        73 4.33242E+01 3.61627E+01 7.69203E+01-6.65595E-03 1.04237E-02-1.96345E+02
 -1        74 3.43535E+02 4.91295E+02 1.30003E+03-1.94236E-02-1.45412E-02-1.18020E+02
 -1        75 4.29717E+01 3.60039E+01 7.67432E+01-6.65594E-03 1.04237E-02-1.96360E+02
 -1        76 3.42951E+02 4.90864E+02 1.29917E+03-1.94236E-02-1.45411E-02-1.18236E+02
 -1        77 2.71720E+01 2.92785E+01 7.00927E+01 4.23868E-02-3.85483E-03-1.35780E+02
 -1        78 3.99243E+02 3.74153E+02 8.50718E+02-5.06979E-02-7.50517E-02-1.65300E+02
 -1        79 2.68631E+01 2.90861E+01 6.97634E+01 4.23867E-02-3.85489E-03-1.36193E+02
 -1        80 3.97322E+02 3.73349E+02 8.49953E+02-5.06974E-02-7.50515E-02-1.65562E+02
 -1        81 1.17788E+01 1.46951E+01 3.79060E+01-5.95830E-02-1.29813E-02-3.32488E+01
 -1        82-2.68262E+02 4.17667E+01 4.08681E+02 3.46535E-02-8.43376E-03-1.36657E+02
 -1        83 1.14536E+01 1.45108E+01 3.76116E+01-5.95829E-02-1.29811E-02-3.38700E+01
 -1        84-2.65684E+02 4.32150E+01 4.10931E+02 3.46535E-02-8.43391E-03-1.36120E+02
 -1        85 7.45339E+03 7.21025E+03 1.76839E+04 1.31255E-05-4.99137E-05 5.08468E+03
 -1        86 2.38508E+03 4.79781E+03 1.42385E+04-1.05872E-02 1.05705E-02 1.75543E+03
 -1        87 7.45347E+03 7.21034E+03 1.76841E+04 1.31292E-05-4.99156E-05 5.08462E+03
 -1        88 2.38552E+03 4.79808E+03 1.42390E+04-1.05872E-02 1.05706E-02 1.75537E+03
 -1        89 2.76430E+03 4.15901E+03 1.15334E+04 1.72349E-02 3.32921E-02 1.22774E+03
 -1        90 2.76375E+03 4.15883E+03 1.15333E+04 1.72349E-02 3.32921E-02 1.22769E+03
 -1        91 1.90429E+03 2.96359E+03 8.20667E+03 3.76806E-02 2.52211E-02 1.20311E+03
 -1        92 1.90385E+03 2.96336E+03 8.20633E+03 3.76806E-02 2.52210E-02 1.20301E+03
 -1        93 1.31425E+03 1.98540E+03 5.41437E+03 3.39585E-02 1.12302E-02 1.00775E+03
 -1        94 1.31361E+03 1.98509E+03 5.41396E+03 3.39584E-02 1.12301E-02 1.00763E+03
 -1        95 6.98145E+02 1.03752E+03 2.79847E+03 2.27331E-02 6.68980E-03 7.95400E+02
 -1        96 6.97425E+02 1.03719E+03 2.79807E+03 2.27331E-02 6.68979E-03 7.95390E+02
 -1        97 1.25978E+02 1.57139E+02 4.06843E+02 2.74357E-02 6.44735E-04 5.53293E+02
 -1        98 1.25490E+02 1.56868E+02 4.06431E+02 2.74357E-02 6.44751E-04 5.53384E+02
 -1        99-3.96008E+02-6.31027E+02-1.69318E+03 3.90281E-02-1.58542E-02 3.09223E+02
 -1       100-3.96420E+02-6.31251E+02-1.69351E+03 3.90280E-02-1.58542E-02 3.09322E+02
 -1       101-8.36555E+02-1.28374E+03-3.40169E+03 3.63578E-02-1.49778E-02 9.03151E+01
 -1       102-8.37196E+02-1.28397E+03-3.40181E+03 3.63577E-02-1.49778E-02 9.03901E+01
 -1       103-1.15543E+03-1.76699E+03-4.66044E+03 3.18981E-02 5.05129E-03-8.07236E+01
 -1       104-1.15596E+03-1.76718E+03-4.66055E+03 3.18980E-02 5.05129E-03-8.07456E+01
 -1       105-1.34882E+03-2.07405E+03-5.46300E+03 2.57178E-02-1.98257E-03-1.93955E+02
 -1       106-1.34926E+03-2.07428E+03-5.46334E+03 2.57177E-02-1.98257E-03-1.93960E+02
 -1       107-1.42717E+03-2.20705E+03-5.81401E+03 2.72632E-02-1.39964E-02-2.56961E+02
 -1       108-1.42773E+03-2.20730E+03-5.81429E+03 2.72632E-02-1.39964E-02-2.56859E+02
 -1       109-1.39575E+03-2.16923E+03-5.72237E+03 3.50709E-02-4.44146E-03-2.89501E+02
 -1       110-1.39607E+03-2.16934E+03-5.72241E+03 3.50708E-02-4.44144E-03-2.89423E+02
 -1       111-1.27282E+03-1.98222E+03-5.23991E+03 3.52156E-02-8.92006E-04-2.97144E+02
 -1       112-1.27336E+03-1.98245E+03-5.24011E+03 3.52155E-02-8.91996E-04-2.97100E+02
 -1       113-1.07522E+03-1.68597E+03-4.47558E+03 2.45178E-02-9.37815E-05-2.76382E+02
 -1       114-1.07563E+03-1.68618E+03-4.47587E+03 2.45178E-02-9.37894E-05-2.76444E+02
 -1       115-8.63851E+02-1.34853E+03-3.58700E+03-1.45503E-02-1.35613E-02-2.35571E+02
 -1       116-8.63709E+02-1.34848E+03-3.58698E+03-1.45503E-02-1.35614E-02-2.35332E+02
 -1       117-6.71435E+02-1.02212E+03-2.71032E+03 3.95985E-02-2.92169E-03-2.00231E+02
 -1       118-6.71846E+02-1.02224E+03-2.71030E+03 3.95984E-02-2.92165E-03-2.00083E+02
 -1       119-4.66064E+02-7.09886E+02-1.88769E+03 7.82709E-03 8.64497E-03-1.80709E+02
 -1       120-4.65702E+02-7.09693E+02-1.88741E+03 7.82711E-03 8.64496E-03-1.80845E+02
 -1       121-2.49296E+02-4.11957E+02-1.11929E+03 1.27854E-02 1.14842E-02-1.47419E+02
 -1       122-2.49701E+02-4.12128E+02-1.11945E+03 1.27854E-02 1.14841E-02-1.47542E+02
 -1       123-2.73665E+02-2.44457E+02-5.39548E+02-3.11921E-02 9.93172E-03-1.81658E+02
 -1       124-2.72192E+02-2.43868E+02-5.39058E+02-3.11921E-02 9.93173E-03-1.81612E+02
 -1       125 4.46124E+02 1.44097E+02 3.56286E+01 5.67557E-02-5.11757E-03-2.62684E+02
 -1       126 4.43548E+02 1.42920E+02 3.42715E+01 5.67553E-02-5.11753E-03-2.62198E+02
 -3
    1PSTEP                        59          15           3          
  100CL  115 3.50000E-01         126                     1   15           1
 -4  TOSTRAIN    6    1
 -5  EXX         1    4    1    1
 -5  EYY         1    4    2    2
 -5  EZZ         1    4    3    3
 -5  EXY         1    4    1    2
 -5  EYZ         1    4    2    3
 -5  EZX         1    4    3    1
 -1         1-8.89344E-05-5.61847E-15-3.11272E-02 3.60940E-10 6.88549E-14 1.41505E-02
 -1         2-8.86914E-05 6.23692E-16 3.90633E-05-1.45026E-10-1.43774E-13 1.05789E-02
 -1         3-3.91889E-04-3.71780E-15 2.82692E-04 1.16861E-08-2.75121E-08 3.02043E-03
 -1         4 7.60193E-03 3.07303E-14-2.83603E-02-1.43914E-07 2.97692E-08 4.14733E-03
 -1         5-8.89282E-05-5.61847E-15-3.11268E-02 3.60892E-10 6.88557E-14 1.41497E-02
 -1         6-8.86898E-05 6.23692E-16 3.87321E-05-1.45025E-10-1.43774E-13 1.05789E-02
 -1         7-3.92539E-04-3.71780E-15 2.82642E-04 1.16861E-08-2.75121E-08 3.02029E-03
 -1         8 7.60006E-03 3.07303E-14-2.83602E-02-1.43913E-07 2.97693E-08 4.14714E-03
 -1         9-4.50265E-04-3.91963E-15 5.85754E-04-4.79054E-08-8.50021E-09 3.30249E-03
 -1        10 4.15337E-03 5.34844E-14-2.19740E-02-1.73610E-07 8.35160E-10 2.22563E-03
 -1        11-4.51599E-04-3.91963E-15 5.85953E-04-4.79054E-08-8.50024E-09 3.30232E-03
 -1        12 4.15186E-03 5.34844E-14-2.19740E-02-1.73609E-07 8.35114E-10 2.22582E-03
 -1        13-3.84125E-04-3.32941E-16 6.74452E-04 6.27556E-08 5.33325E-09 2.79098E-03
 -1        14 3.23861E-03 1.01684E-14-1.54617E-02-1.00184E-07 1.07086E-08 2.25444E-03
 -1        15-3.85420E-04-3.32941E-16 6.74471E-04 6.27555E-08 5.33327E-09 2.79096E-03
 -1        16 3.23666E-03 1.01684E-14-1.54615E-02-1.00184E-07 1.07085E-08 2.25455E-03
 -1        17-3.46305E-04-6.01024E-15 7.15386E-04 2.37025E-08-4.56561E-09 2.58187E-03
 -1        18 2.01296E-03 3.16352E-14-9.86462E-03-1.45005E-07 1.96912E-08 2.00103E-03
 -1        19-3.47814E-04-6.01024E-15 7.15448E-04 2.37024E-08-4.56563E-09 2.58151E-03
 -1        20 2.01093E-03 3.16352E-14-9.86463E-03-1.45005E-07 1.96913E-08 2.00079E-03
 -1        21-3.19574E-04-6.47625E-15 7.10879E-04-3.26328E-08 1.62413E-08 2.39552E-03
 -1        22 9.22829E-04 8.74389E-14-4.64281E-03-2.26433E-07 6.51505E-09 1.86451E-03
 -1        23-3.21359E-04-6.47625E-15 7.11062E-04-3.26327E-08 1.62413E-08 2.39546E-03
 -1        24 9.20504E-04 8.74389E-14-4.64285E-03-2.26432E-07 6.51504E-09 1.86449E-03
 -1        25-2.71974E-04-3.41285E-15 6.41813E-04 2.44858E-08 2.58351E-08 2.16931E-03
 -1        26-8.06250E-05 2.52574E-14 1.37409E-04-1.32618E-07 1.18225E-08 1.68775E-03
 -1        27-2.73301E-04-3.41285E-15 6.41675E-04 2.44857E-08 2.58351E-08 2.16964E-03
 -1        28-8.25104E-05 2.52574E-14 1.37574E-04-1.32618E-07 1.18224E-08 1.68812E-03
 -1        29-2.19023E-04 5.30220E-15 5.16745E-04 7.50606E-08-6.94394E-09 1.83731E-03
 -1        30-9.50063E-04 4.03974E-15 4.27936E-03-7.66298E-08 3.36618E-08 1.43343E-03
 -1        31-2.20271E-04 5.30220E-15 5.16537E-04 7.50605E-08-6.94395E-09 1.83747E-03
 -1        32-9.51883E-04 4.03974E-15 4.27936E-03-7.66296E-08 3.36618E-08 1.43359E-03
 -1        33-1.67052E-04-7.54674E-15 3.53471E-04 8.05643E-09-9.14438E-09 1.41232E-03
 -1        34-1.63970E-03 4.10901E-14 7.56369E-03-1.61147E-07 1.25350E-08 1.10762E-03
 -1        35-1.68753E-04-7.54674E-15 3.53592E-04 8.05641E-09-9.14438E-09 1.41228E-03
 -1        36-1.64173E-03 4.10901E-14 7.56322E-03-1.61147E-07 1.25350E-08 1.10755E-03
 -1        37-8.85802E-05-5.33455E-15 1.54437E-04 1.30928E-08 1.28843E-08 9.51620E-04
 -1        38-2.09747E-03 3.56171E-14 9.88196E-03-1.44614E-07-4.10422E-08 7.53229E-04
 -1        39-9.00594E-05-5.33455E-15 1.54489E-04 1.30928E-08 1.28843E-08 9.51492E-04
 -1        40-2.09937E-03 3.56171E-14 9.88166E-03-1.44614E-07-4.10422E-08 7.53000E-04
 -1        41-1.48478E-07-3.08726E-15-5.00417E-05 3.19393E-08-8.79894E-10 5.04110E-04
 -1        42-2.34011E-03 2.65159E-14 1.12421E-02-1.29443E-07-3.31935E-08 4.05843E-04
 -1        43-1.42794E-06-3.08726E-15-5.01693E-05 3.19393E-08-8.79895E-10 5.03989E-04
 -1        44-2.34204E-03 2.65159E-14 1.12421E-02-1.29443E-07-3.31935E-08 4.05588E-04
 -1        45 7.17364E-05-6.68947E-15-2.12841E-04 5.47064E-09-8.88822E-09 8.75530E-05
 -1        46-2.39946E-03 4.58200E-14 1.17042E-02-1.65646E-07-2.71380E-08 8.32413E-05
 -1        47 7.01944E-05-6.68947E-15-2.12749E-04 5.47063E-09-8.88822E-09 8.76598E-05
 -1        48-2.40151E-03 4.58200E-14 1.17043E-02-1.65646E-07-2.71381E-08 8.31979E-05
 -1        49 1.25163E-04 3.71086E-16-3.14690E-04 5.36026E-08 1.39882E-08-3.03388E-04
 -1        50-2.28374E-03 1.38505E-14 1.13232E-02-1.08004E-07-5.50088E-09-2.20979E-04
 -1        51 1.23829E-04 3.71086E-16-3.14418E-04 5.36026E-08 1.39882E-08-3.03311E-04
 -1        52-2.28568E-03 1.38505E-14 1.13233E-02-1.08004E-07-5.50090E-09-2.21015E-04
 -1        53 1.56719E-04-2.21743E-15-3.56641E-04 2.80825E-08 3.55944E-08-6.14833E-04
 -1        54-2.01620E-03 2.79591E-14 1.02250E-02-1.38425E-07 2.15173E-09-4.69384E-04
 -1        55 1.55201E-04-2.21743E-15-3.56447E-04 2.80825E-08 3.55944E-08-6.14915E-04
 -1        56-2.01819E-03 2.79591E-14 1.02246E-02-1.38425E-07 2.15175E-09-4.69646E-04
 -1        57 1.74609E-04-1.63554E-15-3.26883E-04 2.67043E-08 4.56456E-08-7.78183E-04
 -1        58-1.65627E-03 2.81130E-14 8.69746E-03-1.28280E-07-7.17238E-08-6.06751E-04
 -1        59 1.73361E-04-1.63554E-15-3.26718E-04 2.67042E-08 4.56456E-08-7.78560E-04
 -1        60-1.65812E-03 2.81130E-14 8.69760E-03-1.28280E-07-7.17237E-08-6.07570E-04
 -1        61 1.43254E-04 1.84759E-15-2.21126E-04-2.35517E-08 6.26587E-08-7.97397E-04
 -1        62-1.30296E-03 5.11648E-14 7.02642E-03-1.75559E-07 2.76886E-08-6.28284E-04
 -1        63 1.42479E-04 1.84759E-15-2.21190E-04-2.35516E-08 6.26587E-08-7.97114E-04
 -1        64-1.30479E-03 5.11648E-14 7.02669E-03-1.75558E-07 2.76886E-08-6.28330E-04
 -1        65 7.49784E-05 1.99443E-15-9.51098E-05 4.86531E-08 3.48929E-08-7.49975E-04
 -1        66-9.99048E-04 3.77094E-15 5.41576E-03-7.33635E-08-2.58092E-08-5.85831E-04
 -1        67 7.37654E-05 1.99443E-15-9.54916E-05 4.86530E-08 3.48930E-08-7.49745E-04
 -1        68-1.00051E-03 3.77094E-15 5.41550E-03-7.33634E-08-2.58092E-08-5.85950E-04
 -1        69 6.20232E-05 4.03467E-15 1.63228E-05 7.16488E-08-1.28236E-09-6.83290E-04
 -1        70-6.75003E-04 8.96607E-15 3.98962E-03-9.32856E-08-1.45467E-08-5.36963E-04
 -1        71 6.13127E-05 4.03467E-15 1.63178E-05 7.16487E-08-1.28239E-09-6.83631E-04
 -1        72-6.76981E-04 8.96607E-15 3.98949E-03-9.32854E-08-1.45467E-08-5.37010E-04
 -1        73 2.84307E-05-2.07476E-15 1.27423E-04-2.18336E-08 3.36913E-08-6.38348E-04
 -1        74-4.76444E-04 4.26772E-15 2.60928E-03-6.28233E-08-4.75752E-08-4.02219E-04
 -1        75 2.78057E-05-2.07476E-15 1.27360E-04-2.18336E-08 3.36913E-08-6.38406E-04
 -1        76-4.76936E-04 4.26772E-15 2.60790E-03-6.28233E-08-4.75751E-08-4.02916E-04
 -1        77-2.63324E-06-4.96385E-15 1.29097E-04 1.37798E-07-1.18567E-08-4.41935E-04
 -1        78 8.53877E-05 1.10231E-13 1.53823E-03-1.63704E-07-2.44271E-07-5.42370E-04
 -1        79-3.00618E-06-4.96385E-15 1.28637E-04 1.37798E-07-1.18567E-08-4.43278E-04
 -1        80 8.17699E-05 1.10231E-13 1.53835E-03-1.63704E-07-2.44271E-07-5.43236E-04
 -1        81-1.03626E-05 2.46647E-14 7.47220E-05-1.93458E-07-4.30801E-08-1.07921E-04
 -1        82-1.00605E-03-2.17530E-14 1.18667E-03 1.12761E-07-2.68876E-08-4.52450E-04
 -1        83-1.07934E-05 2.46647E-14 7.43481E-05-1.93458E-07-4.30797E-08-1.09942E-04
 -1        84-1.00238E-03-2.17530E-14 1.18928E-03 1.12761E-07-2.68876E-08-4.50694E-04
 -1        85-8.84485E-05-4.51788E-16 3.21369E-02 1.21417E-10 6.70846E-14 1.50012E-02
 -1        86-8.38571E-03 9.91691E-16 2.94629E-02-3.56588E-08 3.23167E-08 4.19278E-03
 -1        87-8.84515E-05-4.51788E-16 3.21373E-02 1.21425E-10 6.70847E-14 1.50010E-02
 -1        88-8.38514E-03 9.91691E-16 2.94636E-02-3.56588E-08 3.23167E-08 4.19257E-03
 -1        89-5.05390E-03 1.75730E-14 2.33236E-02 4.91642E-08 1.08204E-07 2.19622E-03
 -1        90-5.05506E-03 1.75730E-14 2.33239E-02 4.91640E-08 1.08204E-07 2.19598E-03
 -1        91-4.00686E-03 3.78636E-14 1.69760E-02 1.15151E-07 8.93246E-08 2.20548E-03
 -1        92-4.00750E-03 3.78636E-14 1.69757E-02 1.15151E-07 8.93246E-08 2.20516E-03
 -1        93-2.70557E-03 2.31942E-14 1.13698E-02 1.06316E-07 4.57518E-08 1.97255E-03
 -1        94-2.70656E-03 2.31942E-14 1.13694E-02 1.06316E-07 4.57518E-08 1.97212E-03
 -1        95-1.56198E-03 7.89826E-15 6.07853E-03 7.12806E-08 2.86737E-08 1.84257E-03
 -1        96-1.56322E-03 7.89826E-15 6.07832E-03 7.12805E-08 2.86737E-08 1.84245E-03
 -1        97-4.63324E-04 1.37144E-14 1.14917E-03 8.84870E-08 1.10523E-08 1.66411E-03
 -1        98-4.64092E-04 1.37144E-14 1.14877E-03 8.84870E-08 1.10523E-08 1.66438E-03
 -1        99 5.12018E-04 3.56237E-14-3.23799E-03 1.31530E-07-3.88683E-08 1.40917E-03
 -1       100 5.11341E-04 3.56237E-14-3.23828E-03 1.31530E-07-3.88683E-08 1.40947E-03
 -1       101 1.30560E-03 2.75783E-14-6.84410E-03 1.22376E-07-3.77742E-08 1.07814E-03
 -1       102 1.30423E-03 2.75783E-14-6.84370E-03 1.22376E-07-3.77742E-08 1.07822E-03
 -1       103 1.92031E-03 1.85353E-14-9.53327E-03 1.01978E-07 2.54119E-08 7.16349E-04
 -1       104 1.91925E-03 1.85353E-14-9.53303E-03 1.01977E-07 2.54119E-08 7.16158E-04
 -1       105 2.33981E-03 1.27880E-14-1.12672E-02 8.39463E-08-2.62179E-10 3.71213E-04
 -1       106 2.33918E-03 1.27880E-14-1.12676E-02 8.39463E-08-2.62184E-10 3.71178E-04
 -1       107 2.54293E-03 1.66998E-14-1.20387E-02 9.13701E-08-4.04547E-08 5.73839E-05
 -1       108 2.54190E-03 1.66998E-14-1.20387E-02 9.13699E-08-4.04547E-08 5.76665E-05
 -1       109 2.53407E-03 2.46963E-14-1.18679E-02 1.14725E-07-8.74515E-09-2.36649E-04
 -1       110 2.53334E-03 2.46963E-14-1.18676E-02 1.14725E-07-8.74514E-09-2.36443E-04
 -1       111 2.32963E-03 2.31299E-14-1.08635E-02 1.14610E-07 1.65672E-09-4.71320E-04
 -1       112 2.32860E-03 2.31299E-14-1.08634E-02 1.14610E-07 1.65670E-09-4.71224E-04
 -1       113 2.00548E-03 8.19838E-15-9.27063E-03 7.97487E-08 2.03292E-09-5.86327E-04
 -1       114 2.00485E-03 8.19838E-15-9.27091E-03 7.97487E-08 2.03285E-09-5.86550E-04
 -1       115 1.58947E-03-3.31333E-15-7.40681E-03-4.64582E-08-4.53311E-08-5.88015E-04
 -1       116 1.58974E-03-3.31333E-15-7.40687E-03-4.64582E-08-4.53311E-08-5.87222E-04
 -1       117 1.14901E-03 2.41688E-14-5.56292E-03 1.28901E-07-7.54060E-09-5.59553E-04
 -1       118 1.14804E-03 2.41688E-14-5.56247E-03 1.28901E-07-7.54054E-09-5.59084E-04
 -1       119 7.99049E-04 7.64491E-16-3.86773E-03 2.52216E-08 2.84413E-08-5.45086E-04
 -1       120 7.99607E-04 7.64491E-16-3.86745E-03 2.52216E-08 2.84413E-08-5.45527E-04
 -1       121 5.33306E-04 4.41399E-15-2.31583E-03 4.13377E-08 3.77159E-08-4.61826E-04
 -1       122 5.32547E-04 4.41399E-15-2.31581E-03 4.13377E-08 3.77159E-08-4.62231E-04
 -1       123-9.06542E-05-1.32746E-15-9.67572E-04-1.01498E-07 3.17687E-08-5.87059E-04
 -1       124-8.77823E-05-1.32746E-15-9.67893E-04-1.01498E-07 3.17687E-08-5.86893E-04
 -1       125 9.85328E-04 1.37527E-14-3.60742E-04 1.84326E-07-1.57318E-08-8.46810E-04
 -1       126 9.80793E-04 1.37527E-14-3.61313E-04 1.84326E-07-1.57317E-08-8.45257E-04
 -3
    1PSTEP                        60          15           3          
  100CL  115 3.50000E-01         126                     1   15           1
 -4  ERROR       1    1
 -5  STR(%)      1    1    0    0
 -1         1 6.33070E+01
 -1         2 6.43230E+01
 -1         3 6.43230E+01
 -1         4 6.33070E+01
 -1         5 6.33070E+01
 -1         6 6.43230E+01
 -1         7 6.43230E+01
 -1         8 6.33070E+01
 -1         9 6.45545E+01
 -1        10 6.45545E+01
 -1        11 6.45545E+01
 -1        12 6.45545E+01
 -1        13 6.46571E+01
 -1        14 6.46571E+01
 -1        15 6.46571E+01
 -1        16 6.46571E+01
 -1        17 6.46571E+01
 -1        18 6.46571E+01
 -1        19 6.46571E+01
 -1        20 6.46571E+01
 -1        21 6.66095E+01
 -1        22 6.66095E+01
 -1        23 6.66095E+01
 -1        24 6.66095E+01
 -1        25 6.66095E+01
 -1        26 6.66095E+01
 -1        27 6.66095E+01
 -1        28 6.66095E+01
 -1        29 6.17874E+01
 -1        30 5.19199E+01
 -1        31 6.17874E+01
 -1        32 5.19199E+01
 -1        33 6.35925E+01
 -1        34 5.95801E+01
 -1        35 6.35925E+01
 -1        36 5.95801E+01
 -1        37 6.35925E+01
 -1        38 6.11820E+01
 -1        39 6.35925E+01
 -1        40 6.11820E+01
 -1        41 6.11834E+01
 -1        42 6.11820E+01
 -1        43 6.11834E+01
 -1        44 6.11820E+01
 -1        45 6.11951E+01
 -1        46 6.11951E+01
 -1        47 6.11951E+01
 -1        48 6.11951E+01
 -1        49 6.31283E+01
 -1        50 6.31283E+01
 -1        51 6.31283E+01
 -1        52 6.31283E+01
 -1        53 6.43308E+01
 -1        54 6.43308E+01
 -1        55 6.43308E+01
 -1        56 6.43308E+01
 -1        57 6.44616E+01
 -1        58 6.44616E+01
 -1        59 6.44616E+01
 -1        60 6.44616E+01
 -1        61 6.44616E+01
 -1        62 6.44616E+01
 -1        63 6.44616E+01
 -1        64 6.44616E+01
 -1        65 6.34122E+01
 -1        66 6.34122E+01
 -1        67 6.34122E+01
 -1        68 6.34122E+01
 -1        69 6.21797E+01
 -1        70 6.12676E+01
 -1        71 6.21797E+01
 -1        72 6.12676E+01
 -1        73 6.21797E+01
 -1        74 5.80020E+01
 -1        75 6.21797E+01
 -1        76 5.80020E+01
 -1        77 7.78568E+01
 -1        78 7.78568E+01
 -1        79 7.78568E+01
 -1        80 7.78568E+01
 -1        81 7.78568E+01
 -1        82 7.78568E+01
 -1        83 7.78568E+01
 -1        84 7.78568E+01
 -1        85 6.43230E+01
 -1        86 6.43230E+01
 -1        87 6.43230E+01
 -1        88 6.43230E+01
 -1        89 6.09161E+01
 -1        90 6.09161E+01
 -1        91 6.01204E+01
 -1        92 6.01204E+01
 -1        93 5.75645E+01
 -1        94 5.75645E+01
 -1        95 5.11025E+01
 -1        96 5.11025E+01
 -1        97 6.17874E+01
 -1        98 6.17874E+01
 -1        99 6.17874E+01
 -1       100 6.17874E+01
 -1       101 6.35925E+01
 -1       102 6.35925E+01
 -1       103 6.35925E+01
 -1       104 6.35925E+01
 -1       105 6.11834E+01
 -1       106 6.11834E+01
 -1       107 5.87881E+01
 -1       108 5.87881E+01
 -1       109 5.82350E+01
 -1       110 5.82350E+01
 -1       111 5.85366E+01
 -1       112 5.85366E+01
 -1       113 5.88836E+01
 -1       114 5.88836E+01
 -1       115 5.96644E+01
 -1       116 5.96644E+01
 -1       117 6.06604E+01
 -1       118 6.06604E+01
 -1       119 6.21797E+01
 -1       120 6.21797E+01
 -1       121 6.21797E+01
 -1       122 6.21797E+01
 -1       123 4.81803E+01
 -1       124 4.81803E+01
 -1       125 3.55384E+01
 -1       126 3.55384E+01
 -3
    1PSTEP                        61          16           3          
  100CL  116 3.60000E-01         126                     1   16           1
 -4  DISP        4    1
 -5  D1          1    2    1    0
 -5  D2          1    2    2    0
 -5  D3          1    2    3    0
 -5  ALL         1    2    0    0    1ALL
 -1         1 0.00000E+00 0.00000E+00 0.00000E+00
 -1         2 0.00000E+00 0.00000E+00 0.00000E+00
 -1         3 1.11123E-03 0.00000E+00-2.97191E-05
 -1         4 1.49320E-03 0.00000E+00-1.70077E-03
 -1         5 0.00000E+00 0.00000E+00 0.00000E+00
 -1         6 0.00000E+00 0.00000E+00 0.00000E+00
 -1         7 1.11120E-03 0.00000E+00-2.96927E-05
 -1         8 1.49324E-03 0.00000E+00-1.70078E-03
 -1         9 3.95000E-03 0.00000E+00-1.07624E-04
 -1        10 4.08603E-03 0.00000E+00-3.14215E-03
 -1        11 3.95000E-03 0.00000E+00-1.07592E-04
 -1        12 4.08608E-03 0.00000E+00-3.14215E-03
 -1        13 7.84266E-03 0.00000E+00-2.48109E-04
 -1        14 7.85730E-03 0.00000E+00-4.26205E-03
 -1        15 7.84266E-03 0.00000E+00-2.48064E-04
 -1        16 7.85738E-03 0.00000E+00-4.26204E-03
 -1        17 1.25267E-02 0.00000E+00-4.48140E-04
 -1        18 1.24161E-02 0.00000E+00-5.13327E-03
 -1        19 1.25267E-02 0.00000E+00-4.48093E-04
 -1        20 1.24162E-02 0.00000E+00-5.13324E-03
 -1        21 1.77199E-02 0.00000E+00-6.92813E-04
 -1        22 1.75132E-02 0.00000E+00-5.77166E-03
 -1        23 1.77199E-02 0.00000E+00-6.92794E-04
 -1        24 1.75133E-02 0.00000E+00-5.77163E-03
 -1        25 2.31627E-02 0.00000E+00-9.60253E-04
 -1        26 2.28872E-02 0.00000E+00-6.17705E-03
 -1        27 2.31626E-02 0.00000E+00-9.60257E-04
 -1        28 2.28873E-02 0.00000E+00-6.17704E-03
 -1        29 2.85919E-02 0.00000E+00-1.22477E-03
 -1        30 2.82804E-02 0.00000E+00-6.35228E-03
 -1        31 2.85918E-02 0.00000E+00-1.22477E-03
 -1        32 2.82805E-02 0.00000E+00-6.35231E-03
 -1        33 3.37900E-02 0.00000E+00-1.46796E-03
 -1        34 3.34719E-02 0.00000E+00-6.31780E-03
 -1        35 3.37899E-02 0.00000E+00-1.46798E-03
 -1        36 3.34720E-02 0.00000E+00-6.31785E-03
 -1        37 3.85893E-02 0.00000E+00-1.67782E-03
 -1        38 3.82860E-02 0.00000E+00-6.10177E-03
 -1        39 3.85893E-02 0.00000E+00-1.67786E-03
 -1        40 3.82860E-02 0.00000E+00-6.10180E-03
 -1        41 4.28537E-02 0.00000E+00-1.84601E-03
 -1        42 4.25802E-02 0.00000E+00-5.74080E-03
 -1        43 4.28537E-02 0.00000E+00-1.84603E-03
 -1        44 4.25803E-02 0.00000E+00-5.74080E-03
 -1        45 4.65005E-02 0.00000E+00-1.97071E-03
 -1        46 4.62654E-02 0.00000E+00-5.28466E-03
 -1        47 4.65005E-02 0.00000E+00-1.97071E-03
 -1        48 4.62655E-02 0.00000E+00-5.28465E-03
 -1        49 4.95126E-02 0.00000E+00-2.05635E-03
 -1        50 4.93174E-02 0.00000E+00-4.78535E-03
 -1        51 4.95126E-02 0.00000E+00-2.05634E-03
 -1        52 4.93174E-02 0.00000E+00-4.78534E-03
 -1        53 5.19165E-02 0.00000E+00-2.11048E-03
 -1        54 5.17598E-02 0.00000E+00-4.28545E-03
 -1        55 5.19165E-02 0.00000E+00-2.11047E-03
 -1        56 5.17598E-02 0.00000E+00-4.28546E-03
 -1        57 5.37609E-02 0.00000E+00-2.14072E-03
 -1        58 5.36400E-02 0.00000E+00-3.82283E-03
 -1        59 5.37609E-02 0.00000E+00-2.14072E-03
 -1        60 5.36400E-02 0.00000E+00-3.82278E-03
 -1        61 5.51380E-02 0.00000E+00-2.15461E-03
 -1        62 5.50479E-02 0.00000E+00-3.42956E-03
 -1        63 5.51379E-02 0.00000E+00-2.15463E-03
 -1        64 5.50480E-02 0.00000E+00-3.42956E-03
 -1        65 5.61557E-02 0.00000E+00-2.15884E-03
 -1        66 5.60911E-02 0.00000E+00-3.11242E-03
 -1        67 5.61558E-02 0.00000E+00-2.15887E-03
 -1        68 5.60912E-02 0.00000E+00-3.11242E-03
 -1        69 5.68988E-02 0.00000E+00-2.15565E-03
 -1        70 5.68539E-02 0.00000E+00-2.86438E-03
 -1        71 5.68988E-02 0.00000E+00-2.15564E-03
 -1        72 5.68539E-02 0.00000E+00-2.86436E-03
 -1        73 5.74371E-02 0.00000E+00-2.14824E-03
 -1        74 5.74051E-02 0.00000E+00-2.68444E-03
 -1        75 5.74371E-02 0.00000E+00-2.14827E-03
 -1        76 5.74051E-02 0.00000E+00-2.68448E-03
 -1        77 5.78388E-02 0.00000E+00-2.13856E-03
 -1        78 5.78395E-02 0.00000E+00-2.58206E-03
 -1        79 5.78387E-02 0.00000E+00-2.13859E-03
 -1        80 5.78395E-02 0.00000E+00-2.58199E-03
 -1        81 5.82328E-02 0.00000E+00-2.13581E-03
 -1        82 5.81827E-02 0.00000E+00-2.52465E-03
 -1        83 5.82329E-02 0.00000E+00-2.13582E-03
 -1        84 5.81827E-02 0.00000E+00-2.52470E-03
 -1        85 0.00000E+00 0.00000E+00 0.00000E+00
 -1        86 1.56277E-03 0.00000E+00 1.60812E-03
 -1        87 0.00000E+00 0.00000E+00 0.00000E+00
 -1        88 1.56274E-03 0.00000E+00 1.60811E-03
 -1        89 4.28833E-03 0.00000E+00 2.88773E-03
 -1        90 4.28826E-03 0.00000E+00 2.88773E-03
 -1        91 8.19686E-03 0.00000E+00 3.72946E-03
 -1        92 8.19682E-03 0.00000E+00 3.72950E-03
 -1        93 1.28755E-02 0.00000E+00 4.21137E-03
 -1        94 1.28755E-02 0.00000E+00 4.21141E-03
 -1        95 1.80522E-02 0.00000E+00 4.37261E-03
 -1        96 1.80521E-02 0.00000E+00 4.37263E-03
 -1        97 2.34584E-02 0.00000E+00 4.25483E-03
 -1        98 2.34584E-02 0.00000E+00 4.25483E-03
 -1        99 2.88334E-02 0.00000E+00 3.90939E-03
 -1       100 2.88333E-02 0.00000E+00 3.90940E-03
 -1       101 3.39652E-02 0.00000E+00 3.39450E-03
 -1       102 3.39651E-02 0.00000E+00 3.39453E-03
 -1       103 3.86948E-02 0.00000E+00 2.76236E-03
 -1       104 3.86947E-02 0.00000E+00 2.76235E-03
 -1       105 4.28954E-02 0.00000E+00 2.06555E-03
 -1       106 4.28954E-02 0.00000E+00 2.06553E-03
 -1       107 4.64923E-02 0.00000E+00 1.35831E-03
 -1       108 4.64923E-02 0.00000E+00 1.35832E-03
 -1       109 4.94708E-02 0.00000E+00 6.84340E-04
 -1       110 4.94708E-02 0.00000E+00 6.84370E-04
 -1       111 5.18563E-02 0.00000E+00 7.27491E-05
 -1       112 5.18562E-02 0.00000E+00 7.27872E-05
 -1       113 5.36976E-02 0.00000E+00-4.52387E-04
 -1       114 5.36975E-02 0.00000E+00-4.52362E-04
 -1       115 5.50821E-02 0.00000E+00-8.75925E-04
 -1       116 5.50821E-02 0.00000E+00-8.75874E-04
 -1       117 5.61087E-02 0.00000E+00-1.20242E-03
 -1       118 5.61087E-02 0.00000E+00-1.20236E-03
 -1       119 5.68654E-02 0.00000E+00-1.44292E-03
 -1       120 5.68654E-02 0.00000E+00-1.44292E-03
 -1       121 5.74142E-02 0.00000E+00-1.60482E-03
 -1       122 5.74141E-02 0.00000E+00-1.60484E-03
 -1       123 5.78471E-02 0.00000E+00-1.68905E-03
 -1       124 5.78472E-02 0.00000E+00-1.68907E-03
 -1       125 5.81857E-02 0.00000E+00-1.70728E-03
 -1       126 5.81856E-02 0.00000E+00-1.70723E-03
 -3
    1PSTEP                        62          16           3          
  100CL  116 3.60000E-01         126                     1   16           1
 -4  STRESS      6    1
 -5  SXX         1    4    1    1
 -5  SYY         1    4    2    2
 -5  SZZ         1    4    3    3
 -5  SXY         1    4    1    2
 -5  SYZ         1    4    2    3
 -5  SZX         1    4    3    1
 -1         1-7.65414E+03-7.88012E+03-1.73818E+04-9.72492E-05 1.24946E-04 4.10794E+03
 -1         2 2.93606E+01-8.01158E+01-4.13150E+02 7.02484E-05-9.92718E-05 3.40963E+03
 -1         3 8.02492E+01-7.59464E+01-3.75333E+02-1.72968E-02 1.33509E-02 9.74711E+02
 -1         4-2.50567E+03-5.14978E+03-1.39726E+04 2.11775E-02-4.66449E-03 8.84920E+02
 -1         5-7.65417E+03-7.88016E+03-1.73819E+04-9.72634E-05 1.24949E-04 4.10806E+03
 -1         6 2.94669E+01-7.99975E+01-4.12876E+02 7.02537E-05-9.92730E-05 3.40953E+03
 -1         7 8.07111E+01-7.57122E+01-3.74996E+02-1.72969E-02 1.33509E-02 9.74687E+02
 -1         8-2.50483E+03-5.14941E+03-1.39722E+04 2.11776E-02-4.66450E-03 8.84888E+02
 -1         9 1.04455E+02-1.71831E+01-2.19798E+02-3.38166E-03 1.65659E-02 1.06710E+03
 -1        10-2.89588E+03-4.38386E+03-1.12688E+04 2.69330E-02-2.00441E-03 1.76434E+02
 -1        11 1.05159E+02-1.68565E+01-2.19415E+02-3.38167E-03 1.65659E-02 1.06713E+03
 -1        12-2.89517E+03-4.38353E+03-1.12684E+04 2.69331E-02-2.00442E-03 1.76371E+02
 -1        13 1.42592E+02 2.46116E+01-8.20938E+01 2.49273E-03 2.28471E-02 8.91790E+02
 -1        14-1.79915E+03-2.97000E+03-7.88396E+03 4.00492E-02 2.11739E-03 2.04726E+02
 -1        15 1.43304E+02 2.49385E+01-8.17139E+01 2.49273E-03 2.28471E-02 8.91765E+02
 -1        16-1.79822E+03-2.96954E+03-7.88338E+03 4.00494E-02 2.11739E-03 2.04680E+02
 -1        17 1.58515E+02 5.39093E+01 1.50726E+01 1.00015E-02 2.40407E-02 8.15475E+02
 -1        18-1.13094E+03-1.89190E+03-5.08269E+03 5.63392E-02 1.67407E-02 2.45505E+02
 -1        19 1.59362E+02 5.42384E+01 1.53231E+01 1.00015E-02 2.40407E-02 8.15425E+02
 -1        20-1.12988E+03-1.89140E+03-5.08212E+03 5.63394E-02 1.67408E-02 2.45469E+02
 -1        21 1.66170E+02 7.38919E+01 8.26264E+01-6.49706E-03 9.72850E-03 7.56434E+02
 -1        22-4.76238E+02-8.96105E+02-2.48339E+03 4.89404E-02 1.54133E-02 3.77214E+02
 -1        23 1.67054E+02 7.42017E+01 8.27761E+01-6.49710E-03 9.72850E-03 7.56374E+02
 -1        24-4.75163E+02-8.95686E+02-2.48307E+03 4.89407E-02 1.54133E-02 3.77165E+02
 -1        25 1.49336E+02 8.07214E+01 1.24358E+02-4.49861E-03-2.20210E-03 6.80241E+02
 -1        26 8.42027E+01-1.05182E+01-1.11593E+02 4.05713E-02 2.09249E-03 5.05690E+02
 -1        27 1.50055E+02 8.09992E+01 1.24565E+02-4.49862E-03-2.20210E-03 6.80190E+02
 -1        28 8.49776E+01-1.02693E+01-1.11538E+02 4.05715E-02 2.09247E-03 5.05625E+02
 -1        29 1.21785E+02 7.74494E+01 1.38812E+02-1.66987E-02-1.96956E-03 5.66856E+02
 -1        30 5.62005E+02 7.46328E+02 1.94564E+03 3.10493E-02-1.62432E-02 5.85412E+02
 -1        31 1.22544E+02 7.77579E+01 1.39080E+02-1.66987E-02-1.96955E-03 5.66759E+02
 -1        32 5.62879E+02 7.46631E+02 1.94578E+03 3.10495E-02-1.62432E-02 5.85302E+02
 -1        33 9.46341E+01 6.45105E+01 1.18145E+02-4.33017E-03-1.13880E-02 4.41766E+02
 -1        34 9.44097E+02 1.34989E+03 3.60407E+03 4.48169E-02-2.89790E-02 6.09666E+02
 -1        35 9.55281E+01 6.48574E+01 1.18406E+02-4.33018E-03-1.13880E-02 4.41675E+02
 -1        36 9.45151E+02 1.35035E+03 3.60456E+03 4.48171E-02-2.89791E-02 6.09573E+02
 -1        37 6.41921E+01 4.51101E+01 7.91146E+01 5.37761E-03-2.03026E-02 3.08183E+02
 -1        38 1.21248E+03 1.78942E+03 4.83226E+03 4.34881E-02-1.51468E-02 5.71116E+02
 -1        39 6.49504E+01 4.54377E+01 7.94473E+01 5.37763E-03-2.03026E-02 3.08161E+02
 -1        40 1.21337E+03 1.78986E+03 4.83286E+03 4.34883E-02-1.51469E-02 5.71116E+02
 -1        41 3.58703E+01 2.78696E+01 4.62592E+01 2.73446E-03-1.11099E-02 1.61047E+02
 -1        42 1.36622E+03 2.05544E+03 5.58821E+03 3.74772E-02-3.19702E-03 4.64775E+02
 -1        43 3.65342E+01 2.82045E+01 4.67094E+01 2.73447E-03-1.11099E-02 1.61076E+02
 -1        44 1.36704E+03 2.05584E+03 5.58874E+03 3.74774E-02-3.19701E-03 4.64842E+02
 -1        45 1.59098E+01 1.68577E+01 2.74776E+01 1.08617E-02-3.97814E-04 2.38356E+01
 -1        46 1.41311E+03 2.14835E+03 5.85887E+03 5.26181E-02 7.24360E-03 3.20338E+02
 -1        47 1.66897E+01 1.72282E+01 2.79352E+01 1.08617E-02-3.97821E-04 2.37615E+01
 -1        48 1.41401E+03 2.14875E+03 5.85934E+03 5.26183E-02 7.24360E-03 3.20314E+02
 -1        49 3.79334E+00 1.11215E+01 2.05984E+01-1.89742E-02 3.17854E-03-8.31003E+01
 -1        50 1.36955E+03 2.09554E+03 5.72024E+03 1.94235E-02 7.30482E-03 1.76303E+02
 -1        51 4.39933E+00 1.13939E+01 2.08967E+01-1.89743E-02 3.17855E-03-8.31889E+01
 -1        52 1.37029E+03 2.09583E+03 5.72046E+03 1.94236E-02 7.30481E-03 1.76233E+02
 -1        53 5.49571E+00 1.33013E+01 2.83629E+01-7.16929E-03 3.55303E-03-1.69392E+02
 -1        54 1.26238E+03 1.93094E+03 5.26289E+03 2.65161E-02-2.37278E-03 4.40209E+01
 -1        55 6.09547E+00 1.35586E+01 2.86200E+01-7.16931E-03 3.55304E-03-1.69442E+02
 -1        56 1.26318E+03 1.93134E+03 5.26343E+03 2.65162E-02-2.37279E-03 4.39949E+01
 -1        57 8.67586E+00 1.82041E+01 4.40778E+01-1.12616E-02 2.18255E-03-2.29262E+02
 -1        58 1.09937E+03 1.67166E+03 4.53923E+03 2.51878E-02 2.91948E-02-6.13293E+01
 -1        59 9.32310E+00 1.84449E+01 4.42318E+01-1.12616E-02 2.18254E-03-2.29217E+02
 -1        60 1.10015E+03 1.67200E+03 4.53960E+03 2.51879E-02 2.91949E-02-6.11552E+01
 -1        61 9.87777E+00 2.19448E+01 5.78078E+01-5.40176E-03-1.02909E-02-2.44071E+02
 -1        62 9.09654E+02 1.36783E+03 3.69395E+03 3.21290E-02 4.03202E-03-1.18932E+02
 -1        63 1.01648E+01 2.20338E+01 5.78161E+01-5.40176E-03-1.02909E-02-2.44070E+02
 -1        64 9.10290E+02 1.36802E+03 3.69393E+03 3.21291E-02 4.03204E-03-1.18834E+02
 -1        65 3.22162E+01 3.56403E+01 8.33992E+01 1.30408E-02-1.20291E-02-2.29184E+02
 -1        66 7.39376E+02 1.08511E+03 2.90527E+03 3.15864E-02-3.69953E-03-1.37158E+02
 -1        67 3.27319E+01 3.58968E+01 8.37406E+01 1.30409E-02-1.20291E-02-2.29292E+02
 -1        68 7.39772E+02 1.08528E+03 2.90546E+03 3.15864E-02-3.69953E-03-1.37138E+02
 -1        69 3.17868E+01 4.04372E+01 1.01478E+02-8.68184E-03 3.12940E-03-2.15224E+02
 -1        70 5.73894E+02 8.22913E+02 2.18528E+03 2.27868E-02 6.65102E-03-1.49315E+02
 -1        71 3.20426E+01 4.05335E+01 1.01540E+02-8.68185E-03 3.12940E-03-2.15226E+02
 -1        72 5.74467E+02 8.23111E+02 2.18537E+03 2.27869E-02 6.65101E-03-1.49362E+02
 -1        73 2.88811E+01 4.22999E+01 1.11863E+02 5.82911E-03-1.74233E-02-2.14600E+02
 -1        74 3.46352E+02 5.28050E+02 1.42103E+03 1.00788E-02-2.17736E-02-1.28651E+02
 -1        75 2.91490E+01 4.23668E+01 1.11820E+02 5.82913E-03-1.74233E-02-2.14754E+02
 -1        76 3.46566E+02 5.28214E+02 1.42136E+03 1.00788E-02-2.17737E-02-1.28676E+02
 -1        77 1.36259E+01 2.75156E+01 7.77658E+01-4.50512E-02-1.54522E-02-1.49455E+02
 -1        78 4.01129E+02 3.87544E+02 8.93774E+02 2.32299E-02 3.46036E-02-1.66866E+02
 -1        79 1.37163E+01 2.75837E+01 7.78995E+01-4.50513E-02-1.54523E-02-1.49171E+02
 -1        80 4.02524E+02 3.88121E+02 8.94306E+02 2.32301E-02 3.46036E-02-1.66632E+02
 -1        81 2.17781E+01 2.06736E+01 4.78210E+01 5.37484E-02-5.96078E-03-4.52090E+01
 -1        82-2.54049E+02 4.64221E+01 4.09985E+02-1.08350E-02-2.86103E-02-1.37735E+02
 -1        83 2.22922E+01 2.09423E+01 4.82072E+01 5.37485E-02-5.96070E-03-4.47727E+01
 -1        84-2.55974E+02 4.52728E+01 4.08078E+02-1.08350E-02-2.86102E-02-1.38074E+02
 -1        85 7.67926E+03 7.41460E+03 1.82035E+04-5.46124E-05-7.53271E-05 5.31141E+03
 -1        86 2.49137E+03 4.93280E+03 1.46117E+04-1.42121E-02-6.77911E-04 1.85026E+03
 -1        87 7.67924E+03 7.41459E+03 1.82034E+04-5.46130E-05-7.53258E-05 5.31131E+03
 -1        88 2.49130E+03 4.93278E+03 1.46117E+04-1.42121E-02-6.77910E-04 1.85024E+03
 -1        89 2.88976E+03 4.25046E+03 1.17249E+04-3.47692E-02 4.32374E-03 1.30750E+03
 -1        90 2.89049E+03 4.25081E+03 1.17254E+04-3.47693E-02 4.32373E-03 1.30755E+03
 -1        91 1.97703E+03 2.99447E+03 8.23731E+03-2.28187E-02 2.10692E-02 1.26073E+03
 -1        92 1.97760E+03 2.99474E+03 8.23766E+03-2.28187E-02 2.10692E-02 1.26075E+03
 -1        93 1.35854E+03 1.99271E+03 5.39304E+03-3.13855E-02 1.65626E-02 1.03763E+03
 -1        94 1.35931E+03 1.99300E+03 5.39326E+03-3.13856E-02 1.65626E-02 1.03757E+03
 -1        95 7.33087E+02 1.04359E+03 2.78332E+03-4.86666E-02 9.25376E-03 8.12723E+02
 -1        96 7.33887E+02 1.04389E+03 2.78352E+03-4.86668E-02 9.25377E-03 8.12687E+02
 -1        97 1.43103E+02 1.68001E+02 4.25765E+02-3.45623E-02 5.39263E-05 5.59819E+02
 -1        98 1.43732E+02 1.68269E+02 4.26028E+02-3.45624E-02 5.39321E-05 5.59800E+02
 -1        99-3.82477E+02-5.99977E+02-1.60458E+03-4.45870E-02 8.10495E-03 3.03857E+02
 -1       100-3.81833E+02-5.99659E+02-1.60417E+03-4.45871E-02 8.10499E-03 3.03755E+02
 -1       101-8.07819E+02-1.23101E+03-3.25841E+03-4.45862E-02 1.36303E-02 8.86259E+01
 -1       102-8.07000E+02-1.23068E+03-3.25815E+03-4.45864E-02 1.36303E-02 8.84997E+01
 -1       103-1.12763E+03-1.71234E+03-4.51132E+03-2.77986E-02-6.68461E-03-7.51056E+01
 -1       104-1.12700E+03-1.71213E+03-4.51123E+03-2.77987E-02-6.68461E-03-7.51295E+01
 -1       105-1.32913E+03-2.01582E+03-5.29559E+03-1.73797E-02-9.61054E-03-1.94228E+02
 -1       106-1.32863E+03-2.01557E+03-5.29527E+03-1.73797E-02-9.61055E-03-1.94211E+02
 -1       107-1.40875E+03-2.13269E+03-5.59458E+03-1.69453E-02 6.27815E-03-2.64167E+02
 -1       108-1.40805E+03-2.13232E+03-5.59407E+03-1.69453E-02 6.27817E-03-2.64272E+02
 -1       109-1.38352E+03-2.09107E+03-5.48518E+03-3.80377E-02 1.53524E-02-2.89414E+02
 -1       110-1.38306E+03-2.09084E+03-5.48486E+03-3.80378E-02 1.53524E-02-2.89530E+02
 -1       111-1.26378E+03-1.91642E+03-5.03827E+03-3.02704E-02 1.91853E-02-2.93249E+02
 -1       112-1.26329E+03-1.91621E+03-5.03808E+03-3.02705E-02 1.91853E-02-2.93364E+02
 -1       113-1.08910E+03-1.64403E+03-4.32758E+03-4.27168E-02 1.24536E-02-2.82731E+02
 -1       114-1.08839E+03-1.64370E+03-4.32722E+03-4.27170E-02 1.24536E-02-2.82713E+02
 -1       115-8.94291E+02-1.33030E+03-3.49878E+03-7.79549E-04 2.59783E-02-2.55032E+02
 -1       116-8.94300E+02-1.33026E+03-3.49863E+03-7.79555E-04 2.59783E-02-2.55155E+02
 -1       117-6.71743E+02-1.01213E+03-2.67789E+03-1.14092E-02 2.77839E-02-2.16183E+02
 -1       118-6.71342E+02-1.01203E+03-2.67793E+03-1.14092E-02 2.77839E-02-2.16435E+02
 -1       119-4.98422E+02-7.31315E+02-1.92648E+03-4.20044E-03-3.53554E-04-1.93218E+02
 -1       120-4.98677E+02-7.31516E+02-1.92689E+03-4.20043E-03-3.53557E-04-1.93235E+02
 -1       121-2.81016E+02-4.37386E+02-1.17195E+03-2.35105E-02-7.31423E-03-1.65785E+02
 -1       122-2.80449E+02-4.37172E+02-1.17180E+03-2.35105E-02-7.31423E-03-1.65776E+02
 -1       123-3.00435E+02-2.58750E+02-5.60250E+02 1.96118E-02-1.20050E-02-1.96893E+02
 -1       124-3.01657E+02-2.59195E+02-5.60511E+02 1.96118E-02-1.20051E-02-1.96987E+02
 -1       125 4.45422E+02 1.47222E+02 4.68306E+01-4.98005E-02 2.32987E-02-2.78996E+02
 -1       126 4.47909E+02 1.48468E+02 4.85027E+01-4.98009E-02 2.32989E-02-2.79595E+02
 -3
    1PSTEP                        63          16           3          
  100CL  116 3.60000E-01         126                     1   16           1
 -4  TOSTRAIN    6    1
 -5  EXX         1    4    1    1
 -5  EYY         1    4    2    2
 -5  EZZ         1    4    3    3
 -5  EXY         1    4    1    2
 -5  EYZ         1    4    2    3
 -5  EZX         1    4    3    1
 -1         1-9.80782E-05-5.71208E-16-3.30881E-02-1.77191E-10-3.36610E-13 1.49317E-02
 -1         2-9.70722E-05-1.12273E-15-4.44305E-04 2.36149E-10-1.95597E-13 1.11121E-02
 -1         3-1.93224E-04 6.00292E-15-2.26196E-04-5.80476E-08 4.16207E-08 3.20949E-03
 -1         4 8.14570E-03 3.08479E-15-3.01095E-02 6.92679E-08-1.32654E-08 4.40060E-03
 -1         5-9.80842E-05-5.71208E-16-3.30882E-02-1.77210E-10-3.36610E-13 1.49321E-02
 -1         6-9.70738E-05-1.12273E-15-4.43794E-04 2.36156E-10-1.95596E-13 1.11118E-02
 -1         7-1.92528E-04 6.00292E-15-2.25866E-04-5.80477E-08 4.16207E-08 3.20942E-03
 -1         8 8.14724E-03 3.08479E-15-3.01095E-02 6.92680E-08-1.32654E-08 4.40055E-03
 -1         9-2.39275E-04 1.57185E-15 9.21936E-05-1.47696E-08 5.29735E-08 3.50535E-03
 -1        10 4.51741E-03 1.04633E-14-2.32328E-02 8.79513E-08-1.05062E-09 2.33895E-03
 -1        11-2.38066E-04 1.57185E-15 9.23991E-05-1.47696E-08 5.29735E-08 3.50551E-03
 -1        12 4.51864E-03 1.04633E-14-2.32326E-02 8.79514E-08-1.05059E-09 2.33882E-03
 -1        13-2.13652E-04 6.65915E-15 2.86206E-04 1.56743E-09 7.46711E-08 2.91641E-03
 -1        14 3.49119E-03 2.61840E-14-1.62331E-02 1.29263E-07 1.77840E-08 2.32237E-03
 -1        15-2.12399E-04 6.65915E-15 2.86373E-04 1.56741E-09 7.46711E-08 2.91641E-03
 -1        16 3.49272E-03 2.61840E-14-1.62326E-02 1.29263E-07 1.77840E-08 2.32231E-03
 -1        17-2.24985E-04 6.39616E-15 4.43374E-04 2.45119E-08 8.07499E-08 2.64373E-03
 -1        18 2.16974E-03 6.43364E-14-1.03135E-02 1.77093E-07 7.23159E-08 2.02840E-03
 -1        19-2.23283E-04 6.39616E-15 4.43100E-04 2.45119E-08 8.07499E-08 2.64375E-03
 -1        20 2.17157E-03 6.43364E-14-1.03133E-02 1.77093E-07 7.23160E-08 2.02843E-03
 -1        21-2.32496E-04-6.68029E-15 5.48110E-04-2.44316E-08 2.92863E-08 2.43124E-03
 -1        22 1.03001E-03 4.40854E-14-4.89750E-03 1.52955E-07 6.64019E-08 1.88061E-03
 -1        23-2.30616E-04-6.68029E-15 5.47574E-04-2.44316E-08 2.92863E-08 2.43128E-03
 -1        24 1.03214E-03 4.40854E-14-4.89782E-03 1.52955E-07 6.64018E-08 1.88070E-03
 -1        25-2.55179E-04-5.09568E-15 6.04029E-04-1.37656E-08-8.64706E-09 2.16734E-03
 -1        26-5.08249E-05 2.65550E-14 9.47759E-06 1.30361E-07 2.05240E-08 1.67448E-03
 -1        27-2.53726E-04-5.09568E-15 6.03781E-04-1.37657E-08-8.64705E-09 2.16735E-03
 -1        28-4.90953E-05 2.65550E-14 8.82596E-06 1.30361E-07 2.05239E-08 1.67452E-03
 -1        29-2.50717E-04-5.52925E-16 5.84033E-04-5.32490E-08-1.19391E-08 1.79474E-03
 -1        30-9.52771E-04 1.59946E-14 4.19793E-03 1.05890E-07-4.19148E-08 1.39062E-03
 -1        31-2.49200E-04-5.52925E-16 5.83854E-04-5.32491E-08-1.19391E-08 1.79459E-03
 -1        32-9.50862E-04 1.59946E-14 4.19734E-03 1.05890E-07-4.19148E-08 1.39051E-03
 -1        33-2.07787E-04-6.19345E-15 4.80798E-04-1.02167E-08-3.82317E-08 1.39900E-03
 -1        34-1.64099E-03 4.97287E-14 7.51810E-03 1.54174E-07-7.88206E-08 1.08956E-03
 -1        35-2.05970E-04-6.19345E-15 4.80484E-04-1.02167E-08-3.82317E-08 1.39891E-03
 -1        36-1.63902E-03 4.97287E-14 7.51815E-03 1.54175E-07-7.88206E-08 1.08944E-03
 -1        37-1.56886E-04 4.16724E-15 3.40858E-04 2.34759E-08-6.41387E-08 9.80169E-04
 -1        38-2.14167E-03 3.91717E-14 9.94131E-03 1.45025E-07-3.59678E-08 7.70475E-04
 -1        39-1.55487E-04 4.16724E-15 3.40877E-04 2.34759E-08-6.41387E-08 9.80222E-04
 -1        40-2.14021E-03 3.91717E-14 9.94180E-03 1.45025E-07-3.59678E-08 7.70554E-04
 -1        41-1.08112E-04-6.01970E-16 2.13541E-04 1.17967E-08-3.52305E-08 5.13705E-04
 -1        42-2.43082E-03 2.46410E-14 1.13964E-02 1.22074E-07-7.15906E-10 4.12826E-04
 -1        43-1.07056E-04-6.01970E-16 2.13935E-04 1.17967E-08-3.52305E-08 5.13851E-04
 -1        44-2.42950E-03 2.46410E-14 1.13968E-02 1.22074E-07-7.15891E-10 4.13107E-04
 -1        45-6.84758E-05-3.95577E-15 1.24606E-04 3.54189E-08 1.00713E-09 7.40647E-05
 -1        46-2.50488E-03 5.07665E-14 1.18781E-02 1.68797E-07 3.43293E-08 7.14187E-05
 -1        47-6.71240E-05-3.95577E-15 1.24859E-04 3.54189E-08 1.00711E-09 7.38949E-05
 -1        48-2.50328E-03 5.07665E-14 1.18782E-02 1.68797E-07 3.43293E-08 7.14366E-05
 -1        49-4.55867E-05 2.45985E-15 7.75658E-05-6.20444E-08 6.85576E-09-2.71426E-04
 -1        50-2.41759E-03 1.65870E-15 1.15589E-02 6.17210E-08 2.67085E-08-1.98038E-04
 -1        51-4.44601E-05 2.45985E-15 7.76186E-05-6.20444E-08 6.85578E-09-2.71657E-04
 -1        52-2.41610E-03 1.65870E-15 1.15587E-02 6.17211E-08 2.67085E-08-1.98167E-04
 -1        53-2.16139E-05-2.19960E-15 6.54928E-05-2.36855E-08 1.04618E-08-5.51467E-04
 -1        54-2.19299E-03 9.30347E-15 1.06122E-02 8.63404E-08-3.91077E-09-4.14024E-04
 -1        55-2.04900E-05-2.19960E-15 6.54823E-05-2.36855E-08 1.04618E-08-5.51581E-04
 -1        56-2.19167E-03 9.30347E-15 1.06126E-02 8.63405E-08-3.91076E-09-4.14063E-04
 -1        57-1.31641E-05-2.62083E-15 8.17261E-05-3.67217E-08 5.92498E-09-7.46942E-04
 -1        58-1.85721E-03 2.11888E-14 9.14046E-03 7.86705E-08 9.65802E-08-5.64057E-04
 -1        59-1.18515E-05-2.62083E-15 8.14568E-05-3.67217E-08 5.92497E-09-7.46743E-04
 -1        60-1.85582E-03 2.11888E-14 9.14059E-03 7.86707E-08 9.65802E-08-5.63460E-04
 -1        61-1.93071E-05-2.82497E-15 1.07497E-04-1.67106E-08-3.38953E-08-7.95785E-04
 -1        62-1.47797E-03 1.53745E-14 7.43204E-03 1.03987E-07 1.57084E-08-6.06394E-04
 -1        63-1.86559E-05-2.82497E-15 1.07230E-04-1.67106E-08-3.38953E-08-7.95755E-04
 -1        64-1.47653E-03 1.53745E-14 7.43141E-03 1.03987E-07 1.57084E-08-6.06025E-04
 -1        65 4.54166E-06 8.19745E-16 1.45710E-04 4.30986E-08-3.83371E-08-7.46932E-04
 -1        66-1.11292E-03 1.96409E-14 5.83222E-03 1.02752E-07-9.95347E-09-5.71575E-04
 -1        67 5.39089E-06 8.19745E-16 1.45972E-04 4.30987E-08-3.83371E-08-7.47267E-04
 -1        68-1.11221E-03 1.96409E-14 5.83227E-03 1.02752E-07-9.95349E-09-5.71494E-04
 -1        69-1.58412E-05-1.63248E-15 1.88738E-04-2.83263E-08 9.76264E-09-7.01909E-04
 -1        70-7.99963E-04 6.65265E-15 4.37612E-03 7.37278E-08 2.25154E-08-5.53490E-04
 -1        71-1.53172E-05-1.63248E-15 1.88630E-04-2.83264E-08 9.76264E-09-7.01908E-04
 -1        72-7.98739E-04 6.65265E-15 4.37576E-03 7.37279E-08 2.25153E-08-5.53621E-04
 -1        73-3.29656E-05 2.34005E-15 2.15299E-04 1.94874E-08-5.64274E-08-6.99633E-04
 -1        74-5.83191E-04 6.64642E-15 2.87594E-03 3.34355E-08-7.01380E-08-4.52369E-04
 -1        75-3.23078E-05 2.34005E-15 2.14931E-04 1.94875E-08-5.64274E-08-7.00122E-04
 -1        76-5.83024E-04 6.64642E-15 2.87648E-03 3.34355E-08-7.01381E-08-4.52449E-04
 -1        77-3.69760E-05 1.59978E-14 1.55762E-04-1.46007E-07-5.14913E-08-4.87388E-04
 -1        78 5.22180E-05 5.25480E-15 1.62966E-03 7.45941E-08 1.12919E-07-5.53932E-04
 -1        79-3.69128E-05 1.59978E-14 1.55993E-04-1.46007E-07-5.14914E-08-4.86467E-04
 -1        80 5.48650E-05 5.25480E-15 1.62953E-03 7.45944E-08 1.12919E-07-5.53148E-04
 -1        81 4.19352E-06 1.37009E-14 8.60490E-05 1.74819E-07-1.79163E-08-1.47079E-04
 -1        82-9.71469E-04-1.42873E-15 1.17230E-03-3.45838E-08-9.31587E-08-4.63803E-04
 -1        83 4.96080E-06 1.37009E-14 8.64513E-05 1.74819E-07-1.79159E-08-1.45655E-04
 -1        84-9.73981E-04-1.42873E-15 1.16983E-03-3.45838E-08-9.31586E-08-4.64909E-04
 -1        85-9.60662E-05-5.94833E-16 3.30710E-02-7.88917E-11-4.17566E-13 1.56274E-02
 -1        86-8.53215E-03 2.83145E-15 3.02070E-02-4.58647E-08-3.65375E-09 4.39651E-03
 -1        87-9.60634E-05-5.94833E-16 3.30710E-02-7.88924E-11-4.17566E-13 1.56271E-02
 -1        88-8.53229E-03 2.83145E-15 3.02070E-02-4.58647E-08-3.65372E-09 4.39645E-03
 -1        89-4.99596E-03 2.10060E-14 2.36710E-02-1.13311E-07 6.82362E-09 2.35698E-03
 -1        90-4.99477E-03 2.10060E-14 2.36714E-02-1.13311E-07 6.82363E-09 2.35716E-03
 -1        91-3.91849E-03 1.69987E-14 1.70230E-02-7.95471E-08 6.08401E-08 2.32952E-03
 -1        92-3.91752E-03 1.69987E-14 1.70232E-02-7.95472E-08 6.08401E-08 2.32963E-03
 -1        93-2.61971E-03 1.97255E-14 1.13154E-02-1.06685E-07 4.33521E-08 2.03792E-03
 -1        94-2.61814E-03 1.97255E-14 1.13151E-02-1.06685E-07 4.33522E-08 2.03791E-03
 -1        95-1.49500E-03 4.46861E-14 6.03777E-03-1.60382E-07 1.37556E-08 1.88659E-03
 -1        96-1.49337E-03 4.46861E-14 6.03745E-03-1.60382E-07 1.37556E-08 1.88667E-03
 -1        97-4.59532E-04 2.12909E-14 1.19223E-03-1.11706E-07-1.15469E-08 1.67789E-03
 -1        98-4.58357E-04 2.12909E-14 1.19222E-03-1.11706E-07-1.15469E-08 1.67795E-03
 -1        99 4.51337E-04 4.01174E-14-3.04363E-03-1.46978E-07 1.13546E-08 1.38009E-03
 -1       100 4.52461E-04 4.01174E-14-3.04338E-03-1.46978E-07 1.13546E-08 1.37984E-03
 -1       101 1.22542E-03 3.69264E-14-6.53755E-03-1.48715E-07 3.02170E-08 1.06707E-03
 -1       102 1.22708E-03 3.69264E-14-6.53781E-03-1.48715E-07 3.02169E-08 1.06684E-03
 -1       103 1.82789E-03 1.14729E-14-9.20718E-03-8.80826E-08-3.00487E-08 7.45135E-04
 -1       104 1.82923E-03 1.14729E-14-9.20759E-03-8.80827E-08-3.00487E-08 7.45219E-04
 -1       105 2.21460E-03 6.43921E-15-1.08938E-02-5.38895E-08-3.60733E-08 3.88772E-04
 -1       106 2.21539E-03 6.43921E-15-1.08936E-02-5.38895E-08-3.60733E-08 3.88875E-04
 -1       107 2.36793E-03 2.65710E-15-1.15469E-02-5.63344E-08 1.68585E-08 5.20887E-05
 -1       108 2.36903E-03 2.65710E-15-1.15465E-02-5.63345E-08 1.68585E-08 5.17761E-05
 -1       109 2.32641E-03 3.27755E-14-1.13273E-02-1.26342E-07 4.36068E-08-2.12320E-04
 -1       110 2.32718E-03 3.27755E-14-1.13270E-02-1.26342E-07 4.36069E-08-2.12678E-04
 -1       111 2.14976E-03 2.41184E-14-1.04032E-02-1.01069E-07 5.87331E-08-4.25003E-04
 -1       112 2.15069E-03 2.41184E-14-1.04033E-02-1.01069E-07 5.87331E-08-4.25338E-04
 -1       113 1.83088E-03 3.47898E-14-8.91716E-03-1.40228E-07 3.62176E-08-5.73434E-04
 -1       114 1.83212E-03 3.47898E-14-8.91702E-03-1.40228E-07 3.62175E-08-5.73330E-04
 -1       115 1.43936E-03 7.06630E-15-7.17899E-03-4.59415E-09 8.50545E-08-6.21920E-04
 -1       116 1.43921E-03 7.06630E-15-7.17868E-03-4.59425E-09 8.50545E-08-6.22330E-04
 -1       117 1.12201E-03 1.09246E-14-5.49345E-03-3.86872E-08 9.00797E-08-5.85030E-04
 -1       118 1.12299E-03 1.09246E-14-5.49397E-03-3.86873E-08 9.00797E-08-5.85828E-04
 -1       119 7.68281E-04-7.97762E-16-3.92963E-03-1.36508E-08-1.34519E-09-5.66717E-04
 -1       120 7.68105E-04-7.97762E-16-3.93032E-03-1.36508E-08-1.34519E-09-5.66764E-04
 -1       121 5.17260E-04 8.39852E-15-2.40970E-03-7.61898E-08-2.46992E-08-5.10167E-04
 -1       122 5.18408E-04 8.39852E-15-2.40993E-03-7.61898E-08-2.46992E-08-5.10123E-04
 -1       123-1.26170E-04-6.46330E-15-9.93841E-04 6.40183E-08-3.84860E-08-6.33659E-04
 -1       124-1.28691E-04-6.46330E-15-9.93246E-04 6.40183E-08-3.84860E-08-6.33994E-04
 -1       125 9.79856E-04 1.85816E-14-3.41721E-04-1.62218E-07 7.43185E-08-8.94992E-04
 -1       126 9.83902E-04 1.85816E-14-3.40367E-04-1.62219E-07 7.43186E-08-8.96904E-04
 -3
    1PSTEP                        64          16           3          
  100CL  116 3.60000E-01         126                     1   16           1
 -4  ERROR       1    1
 -5  STR(%)      1    1    0    0
 -1         1 6.22060E+01
 -1         2 6.53896E+01
 -1         3 6.53896E+01
 -1         4 6.22060E+01
 -1         5 6.22060E+01
 -1         6 6.53896E+01
 -1         7 6.53896E+01
 -1         8 6.22060E+01
 -1         9 6.24870E+01
 -1        10 6.24538E+01
 -1        11 6.24870E+01
 -1        12 6.24538E+01
 -1        13 6.25766E+01
 -1        14 6.25766E+01
 -1        15 6.25766E+01
 -1        16 6.25766E+01
 -1        17 6.25766E+01
 -1        18 6.25766E+01
 -1        19 6.25766E+01
 -1        20 6.25766E+01
 -1        21 6.84225E+01
 -1        22 6.84225E+01
 -1        23 6.84225E+01
 -1        24 6.84225E+01
 -1        25 6.84225E+01
 -1        26 6.84225E+01
 -1        27 6.84225E+01
 -1        28 6.84225E+01
 -1        29 6.08231E+01
 -1        30 5.06397E+01
 -1        31 6.08231E+01
 -1        32 5.06397E+01
 -1        33 6.51811E+01
 -1        34 5.81268E+01
 -1        35 6.51811E+01
 -1        36 5.81268E+01
 -1        37 6.51811E+01
 -1        38 5.96093E+01
 -1        39 6.51811E+01
 -1        40 5.96093E+01
 -1        41 6.30585E+01
 -1        42 5.96093E+01
 -1        43 6.30585E+01
 -1        44 5.96093E+01
 -1        45 6.06868E+01
 -1        46 5.92109E+01
 -1        47 6.06868E+01
 -1        48 5.92109E+01
 -1        49 6.07725E+01
 -1        50 6.00973E+01
 -1        51 6.07725E+01
 -1        52 6.00973E+01
 -1        53 6.17660E+01
 -1        54 6.07314E+01
 -1        55 6.17660E+01
 -1        56 6.07314E+01
 -1        57 6.25839E+01
 -1        58 6.07314E+01
 -1        59 6.25839E+01
 -1        60 6.07314E+01
 -1        61 6.34280E+01
 -1        62 6.06674E+01
 -1        63 6.34280E+01
 -1        64 6.06674E+01
 -1        65 6.44566E+01
 -1        66 5.99369E+01
 -1        67 6.44566E+01
 -1        68 5.99369E+01
 -1        69 6.50928E+01
 -1        70 5.81431E+01
 -1        71 6.50928E+01
 -1        72 5.81431E+01
 -1        73 6.50928E+01
 -1        74 5.58138E+01
 -1        75 6.50928E+01
 -1        76 5.58138E+01
 -1        77 7.63797E+01
 -1        78 7.63797E+01
 -1        79 7.63797E+01
 -1        80 7.63797E+01
 -1        81 7.63797E+01
 -1        82 7.63797E+01
 -1        83 7.63797E+01
 -1        84 7.63797E+01
 -1        85 6.53896E+01
 -1        86 6.53896E+01
 -1        87 6.53896E+01
 -1        88 6.53896E+01
 -1        89 6.24870E+01
 -1        90 6.24870E+01
 -1        91 6.18402E+01
 -1        92 6.18402E+01
 -1        93 5.91897E+01
 -1        94 5.91897E+01
 -1        95 5.26556E+01
 -1        96 5.26556E+01
 -1        97 5.96756E+01
 -1        98 5.96756E+01
 -1        99 6.08231E+01
 -1       100 6.08231E+01
 -1       101 6.51811E+01
 -1       102 6.51811E+01
 -1       103 6.51811E+01
 -1       104 6.51811E+01
 -1       105 6.30585E+01
 -1       106 6.30585E+01
 -1       107 6.06868E+01
 -1       108 6.06868E+01
 -1       109 6.07725E+01
 -1       110 6.07725E+01
 -1       111 6.17660E+01
 -1       112 6.17660E+01
 -1       113 6.25839E+01
 -1       114 6.25839E+01
 -1       115 6.34280E+01
 -1       116 6.34280E+01
 -1       117 6.44566E+01
 -1       118 6.44566E+01
 -1       119 6.50928E+01
 -1       120 6.50928E+01
 -1       121 6.50928E+01
 -1       122 6.50928E+01
 -1       123 4.72087E+01
 -1       124 4.72087E+01
 -1       125 3.61874E+01
 -1       126 3.61874E+01
 -3
    1PSTEP                        65          17           3          
  100CL  117 3.70000E-01         126                     1   17           1
 -4  DISP        4    1
 -5  D1          1    2    1    0
 -5  D2          1    2    2    0
 -5  D3          1    2    3    0
 -5  ALL         1    2    0    0    1ALL
 -1         1 0.00000E+00 0.00000E+00 0.00000E+00
 -1         2 0.00000E+00 0.00000E+00 0.00000E+00
 -1         3 1.13466E-03 0.00000E+00-4.92456E-05
 -1         4 1.53823E-03 0.00000E+00-1.78999E-03
 -1         5 0.00000E+00 0.00000E+00 0.00000E+00
 -1         6 0.00000E+00 0.00000E+00 0.00000E+00
 -1         7 1.13470E-03 0.00000E+00-4.92373E-05
 -1         8 1.53822E-03 0.00000E+00-1.78997E-03
 -1         9 4.09545E-03 0.00000E+00-1.53243E-04
 -1        10 4.23827E-03 0.00000E+00-3.32104E-03
 -1        11 4.09548E-03 0.00000E+00-1.53228E-04
 -1        12 4.23828E-03 0.00000E+00-3.32101E-03
 -1        13 8.17393E-03 0.00000E+00-3.26351E-04
 -1        14 8.18431E-03 0.00000E+00-4.51103E-03
 -1        15 8.17392E-03 0.00000E+00-3.26343E-04
 -1        16 8.18428E-03 0.00000E+00-4.51100E-03
 -1        17 1.30602E-02 0.00000E+00-5.62993E-04
 -1        18 1.29357E-02 0.00000E+00-5.42585E-03
 -1        19 1.30602E-02 0.00000E+00-5.62989E-04
 -1        20 1.29357E-02 0.00000E+00-5.42585E-03
 -1        21 1.84318E-02 0.00000E+00-8.41096E-04
 -1        22 1.82084E-02 0.00000E+00-6.08887E-03
 -1        23 1.84319E-02 0.00000E+00-8.41088E-04
 -1        24 1.82084E-02 0.00000E+00-6.08887E-03
 -1        25 2.40230E-02 0.00000E+00-1.13807E-03
 -1        26 2.37333E-02 0.00000E+00-6.51941E-03
 -1        27 2.40229E-02 0.00000E+00-1.13806E-03
 -1        28 2.37333E-02 0.00000E+00-6.51940E-03
 -1        29 2.96079E-02 0.00000E+00-1.43102E-03
 -1        30 2.92817E-02 0.00000E+00-6.72885E-03
 -1        31 2.96079E-02 0.00000E+00-1.43102E-03
 -1        32 2.92816E-02 0.00000E+00-6.72886E-03
 -1        33 3.49819E-02 0.00000E+00-1.69770E-03
 -1        34 3.46454E-02 0.00000E+00-6.72732E-03
 -1        35 3.49819E-02 0.00000E+00-1.69770E-03
 -1        36 3.46454E-02 0.00000E+00-6.72731E-03
 -1        37 3.99665E-02 0.00000E+00-1.92085E-03
 -1        38 3.96416E-02 0.00000E+00-6.53729E-03
 -1        39 3.99665E-02 0.00000E+00-1.92084E-03
 -1        40 3.96416E-02 0.00000E+00-6.53730E-03
 -1        41 4.44340E-02 0.00000E+00-2.09199E-03
 -1        42 4.41360E-02 0.00000E+00-6.19634E-03
 -1        43 4.44341E-02 0.00000E+00-2.09199E-03
 -1        44 4.41360E-02 0.00000E+00-6.19635E-03
 -1        45 4.83064E-02 0.00000E+00-2.21128E-03
 -1        46 4.80447E-02 0.00000E+00-5.75106E-03
 -1        47 4.83064E-02 0.00000E+00-2.21128E-03
 -1        48 4.80447E-02 0.00000E+00-5.75105E-03
 -1        49 5.15571E-02 0.00000E+00-2.28538E-03
 -1        50 5.13360E-02 0.00000E+00-5.25212E-03
 -1        51 5.15571E-02 0.00000E+00-2.28538E-03
 -1        52 5.13360E-02 0.00000E+00-5.25211E-03
 -1        53 5.42090E-02 0.00000E+00-2.32354E-03
 -1        54 5.40272E-02 0.00000E+00-4.74678E-03
 -1        55 5.42089E-02 0.00000E+00-2.32354E-03
 -1        56 5.40272E-02 0.00000E+00-4.74675E-03
 -1        57 5.63191E-02 0.00000E+00-2.33593E-03
 -1        58 5.61731E-02 0.00000E+00-4.27125E-03
 -1        59 5.63191E-02 0.00000E+00-2.33594E-03
 -1        60 5.61730E-02 0.00000E+00-4.27129E-03
 -1        61 5.79560E-02 0.00000E+00-2.33310E-03
 -1        62 5.78434E-02 0.00000E+00-3.84797E-03
 -1        63 5.79560E-02 0.00000E+00-2.33309E-03
 -1        64 5.78434E-02 0.00000E+00-3.84801E-03
 -1        65 5.91984E-02 0.00000E+00-2.32221E-03
 -1        66 5.91148E-02 0.00000E+00-3.49552E-03
 -1        67 5.91983E-02 0.00000E+00-2.32219E-03
 -1        68 5.91148E-02 0.00000E+00-3.49551E-03
 -1        69 6.01382E-02 0.00000E+00-2.30873E-03
 -1        70 6.00818E-02 0.00000E+00-3.22919E-03
 -1        71 6.01382E-02 0.00000E+00-2.30876E-03
 -1        72 6.00818E-02 0.00000E+00-3.22921E-03
 -1        73 6.08733E-02 0.00000E+00-2.29638E-03
 -1        74 6.08379E-02 0.00000E+00-3.05151E-03
 -1        75 6.08733E-02 0.00000E+00-2.29637E-03
 -1        76 6.08379E-02 0.00000E+00-3.05142E-03
 -1        77 6.15045E-02 0.00000E+00-2.28430E-03
 -1        78 6.15021E-02 0.00000E+00-2.96280E-03
 -1        79 6.15045E-02 0.00000E+00-2.28429E-03
 -1        80 6.15021E-02 0.00000E+00-2.96281E-03
 -1        81 6.21406E-02 0.00000E+00-2.28209E-03
 -1        82 6.20877E-02 0.00000E+00-2.91173E-03
 -1        83 6.21405E-02 0.00000E+00-2.28209E-03
 -1        84 6.20877E-02 0.00000E+00-2.91166E-03
 -1        85 0.00000E+00 0.00000E+00 0.00000E+00
 -1        86 1.60021E-03 0.00000E+00 1.65687E-03
 -1        87 0.00000E+00 0.00000E+00 0.00000E+00
 -1        88 1.60025E-03 0.00000E+00 1.65689E-03
 -1        89 4.44874E-03 0.00000E+00 2.97546E-03
 -1        90 4.44880E-03 0.00000E+00 2.97546E-03
 -1        91 8.54198E-03 0.00000E+00 3.82164E-03
 -1        92 8.54199E-03 0.00000E+00 3.82161E-03
 -1        93 1.34215E-02 0.00000E+00 4.27499E-03
 -1        94 1.34215E-02 0.00000E+00 4.27498E-03
 -1        95 1.87772E-02 0.00000E+00 4.39341E-03
 -1        96 1.87772E-02 0.00000E+00 4.39340E-03
 -1        97 2.43342E-02 0.00000E+00 4.24195E-03
 -1        98 2.43342E-02 0.00000E+00 4.24196E-03
 -1        99 2.98688E-02 0.00000E+00 3.87610E-03
 -1       100 2.98688E-02 0.00000E+00 3.87611E-03
 -1       101 3.51810E-02 0.00000E+00 3.34857E-03
 -1       102 3.51810E-02 0.00000E+00 3.34856E-03
 -1       103 4.01006E-02 0.00000E+00 2.71595E-03
 -1       104 4.01006E-02 0.00000E+00 2.71595E-03
 -1       105 4.45081E-02 0.00000E+00 2.03254E-03
 -1       106 4.45081E-02 0.00000E+00 2.03254E-03
 -1       107 4.83307E-02 0.00000E+00 1.34538E-03
 -1       108 4.83307E-02 0.00000E+00 1.34536E-03
 -1       109 5.15458E-02 0.00000E+00 6.94482E-04
 -1       110 5.15458E-02 0.00000E+00 6.94452E-04
 -1       111 5.41775E-02 0.00000E+00 1.09079E-04
 -1       112 5.41775E-02 0.00000E+00 1.09059E-04
 -1       113 5.62787E-02 0.00000E+00-3.96612E-04
 -1       114 5.62787E-02 0.00000E+00-3.96597E-04
 -1       115 5.79135E-02 0.00000E+00-8.17808E-04
 -1       116 5.79136E-02 0.00000E+00-8.17815E-04
 -1       117 5.91634E-02 0.00000E+00-1.14935E-03
 -1       118 5.91634E-02 0.00000E+00-1.14941E-03
 -1       119 6.01159E-02 0.00000E+00-1.38844E-03
 -1       120 6.01159E-02 0.00000E+00-1.38847E-03
 -1       121 6.08609E-02 0.00000E+00-1.53597E-03
 -1       122 6.08609E-02 0.00000E+00-1.53601E-03
 -1       123 6.15190E-02 0.00000E+00-1.60241E-03
 -1       124 6.15190E-02 0.00000E+00-1.60242E-03
 -1       125 6.20991E-02 0.00000E+00-1.61690E-03
 -1       126 6.20992E-02 0.00000E+00-1.61698E-03
 -3
    1PSTEP                        66          17           3          
  100CL  117 3.70000E-01         126                     1   17           1
 -4  STRESS      6    1
 -5  SXX         1    4    1    1
 -5  SYY         1    4    2    2
 -5  SZZ         1    4    3    3
 -5  SXY         1    4    1    2
 -5  SYZ         1    4    2    3
 -5  SZX         1    4    3    1
 -1         1-8.06219E+03-8.30019E+03-1.82486E+04 8.82843E-05-5.54362E-05 4.20688E+03
 -1         2-5.55493E+01-1.67826E+02-6.36463E+02 2.81576E-05 9.32241E-05 3.47718E+03
 -1         3 7.51671E+01-1.36025E+02-5.72269E+02 1.62738E-02 4.43757E-03 9.81342E+02
 -1         4-2.63388E+03-5.43496E+03-1.47125E+04-7.45855E-03 9.61972E-03 8.81205E+02
 -1         5-8.06210E+03-8.30009E+03-1.82484E+04 8.82809E-05-5.54348E-05 4.20684E+03
 -1         6-5.54974E+01-1.67784E+02-6.36364E+02 2.81617E-05 9.32241E-05 3.47728E+03
 -1         7 7.48799E+01-1.36126E+02-5.72326E+02 1.62738E-02 4.43758E-03 9.81399E+02
 -1         8-2.63431E+03-5.43510E+03-1.47125E+04-7.45854E-03 9.61972E-03 8.81257E+02
 -1         9 8.43528E+01-8.29899E+01-4.22330E+02 1.47662E-02 7.50791E-03 1.12283E+03
 -1        10-3.04937E+03-4.63942E+03-1.19081E+04 4.76927E-03 1.76558E-02 1.71183E+02
 -1        11 8.40388E+01-8.31288E+01-4.22477E+02 1.47662E-02 7.50791E-03 1.12283E+03
 -1        12-3.04956E+03-4.63948E+03-1.19081E+04 4.76927E-03 1.76558E-02 1.71226E+02
 -1        13 1.35717E+02-3.32009E+01-2.68497E+02-6.21639E-03 4.01960E-03 9.55278E+02
 -1        14-1.87212E+03-3.11366E+03-8.26476E+03-1.67753E-02 1.95516E-02 2.18949E+02
 -1        15 1.35432E+02-3.33442E+01-2.68686E+02-6.21638E-03 4.01960E-03 9.55333E+02
 -1        16-1.87245E+03-3.11385E+03-8.26507E+03-1.67753E-02 1.95515E-02 2.18983E+02
 -1        17 1.40215E+02-1.05812E+00-1.50061E+02-2.07831E-03 2.28232E-03 8.45382E+02
 -1        18-1.16331E+03-1.95010E+03-5.23733E+03-1.65968E-02 1.40854E-03 2.51163E+02
 -1        19 1.39876E+02-1.20585E+00-1.50213E+02-2.07830E-03 2.28232E-03 8.45489E+02
 -1        20-1.16368E+03-1.95031E+03-5.23765E+03-1.65968E-02 1.40853E-03 2.51231E+02
 -1        21 1.31861E+02 2.28001E+01-5.39439E+01 2.09376E-02 3.92150E-03 7.33326E+02
 -1        22-5.02805E+02-9.26426E+02-2.55682E+03 7.44424E-03 5.70995E-04 3.53557E+02
 -1        23 1.31565E+02 2.26782E+01-5.40565E+01 2.09376E-02 3.92149E-03 7.33312E+02
 -1        24-5.03091E+02-9.26546E+02-2.55693E+03 7.44423E-03 5.70994E-04 3.53530E+02
 -1        25 1.18304E+02 3.76008E+01 1.09990E+01-1.47875E-02 4.49341E-03 6.36258E+02
 -1        26 5.58660E+01-5.43741E+01-2.30076E+02-2.16533E-02 1.83664E-03 4.64738E+02
 -1        27 1.18040E+02 3.74803E+01 1.08597E+01-1.47875E-02 4.49342E-03 6.36140E+02
 -1        28 5.56658E+01-5.44646E+01-2.30180E+02-2.16533E-02 1.83665E-03 4.64603E+02
 -1        29 9.43605E+01 4.49541E+01 5.75583E+01-1.69234E-02 4.32673E-04 5.45818E+02
 -1        30 5.20269E+02 6.87171E+02 1.78779E+03-3.35537E-02-2.14111E-03 5.60834E+02
 -1        31 9.40295E+01 4.48027E+01 5.73840E+01-1.69234E-02 4.32669E-04 5.45846E+02
 -1        32 5.19926E+02 6.87024E+02 1.78764E+03-3.35536E-02-2.14111E-03 5.60842E+02
 -1        33 6.44736E+01 5.08592E+01 1.03167E+02 2.07924E-04-1.03717E-04 4.38721E+02
 -1        34 8.87434E+02 1.29491E+03 3.47480E+03-1.72148E-02 1.06742E-03 6.02545E+02
 -1        35 6.41397E+01 5.07168E+01 1.03027E+02 2.07924E-04-1.03717E-04 4.38825E+02
 -1        36 8.87106E+02 1.29477E+03 3.47466E+03-1.72148E-02 1.06741E-03 6.02653E+02
 -1        37 3.19954E+01 5.66365E+01 1.50324E+02 6.33876E-03 1.71425E-03 3.12039E+02
 -1        38 1.14748E+03 1.74679E+03 4.75362E+03-3.79611E-03-1.92321E-03 5.73214E+02
 -1        39 3.17404E+01 5.65282E+01 1.50218E+02 6.33875E-03 1.71425E-03 3.12091E+02
 -1        40 1.14729E+03 1.74671E+03 4.75353E+03-3.79610E-03-1.92321E-03 5.73259E+02
 -1        41 1.25854E+00 6.11586E+01 1.92562E+02 1.32044E-02 4.74354E-04 1.78248E+02
 -1        42 1.29548E+03 2.02853E+03 5.57022E+03 3.35398E-03-8.16963E-04 4.83022E+02
 -1        43 1.03823E+00 6.10623E+01 1.92462E+02 1.32044E-02 4.74352E-04 1.78219E+02
 -1        44 1.29529E+03 2.02846E+03 5.57019E+03 3.35398E-03-8.16964E-04 4.82975E+02
 -1        45-1.91156E+01 6.53746E+01 2.25207E+02-3.42404E-03 9.63026E-04 4.84874E+01
 -1        46 1.34619E+03 2.14545E+03 5.92073E+03-1.81162E-02 3.13801E-03 3.52658E+02
 -1        47-1.94308E+01 6.52419E+01 2.25077E+02-3.42404E-03 9.63025E-04 4.84853E+01
 -1        48 1.34590E+03 2.14535E+03 5.92067E+03-1.81162E-02 3.13802E-03 3.52637E+02
 -1        49-2.49888E+01 7.10167E+01 2.49922E+02-1.71918E-03 2.04435E-03-6.08426E+01
 -1        50 1.31700E+03 2.11512E+03 5.84504E+03-1.00009E-02 6.67687E-03 2.11958E+02
 -1        51-2.51674E+01 7.09345E+01 2.49827E+02-1.71918E-03 2.04435E-03-6.08232E+01
 -1        52 1.31689E+03 2.11511E+03 5.84511E+03-1.00009E-02 6.67687E-03 2.11990E+02
 -1        53-2.94307E+01 7.32946E+01 2.63426E+02-1.97842E-02 1.70843E-04-1.38298E+02
 -1        54 1.21507E+03 1.96481E+03 5.43064E+03-1.80479E-02 1.66974E-02 8.74632E+01
 -1        55-2.95040E+01 7.32457E+01 2.63336E+02-1.97842E-02 1.70838E-04-1.38231E+02
 -1        56 1.21498E+03 1.96470E+03 5.43034E+03-1.80478E-02 1.66973E-02 8.75650E+01
 -1        57-2.90155E+01 7.16684E+01 2.60005E+02-5.85299E-03-3.66886E-03-1.91566E+02
 -1        58 1.07254E+03 1.74072E+03 4.80572E+03-8.20299E-03-2.20552E-02-1.32979E+01
 -1        59-2.92702E+01 7.15723E+01 2.59939E+02-5.85299E-03-3.66886E-03-1.91522E+02
 -1        60 1.07236E+03 1.74056E+03 4.80536E+03-8.20299E-03-2.20551E-02-1.33186E+01
 -1        61-9.54728E+00 7.29052E+01 2.47255E+02 2.29623E-02 3.80984E-03-2.28902E+02
 -1        62 9.20704E+02 1.47604E+03 4.05404E+03 1.22493E-02-1.77068E-02-9.03871E+01
 -1        63-9.47700E+00 7.29656E+01 2.47389E+02 2.29623E-02 3.80983E-03-2.28961E+02
 -1        64 9.20619E+02 1.47608E+03 4.05427E+03 1.22493E-02-1.77069E-02-9.04938E+01
 -1        65-9.37952E+00 6.33766E+01 2.17622E+02-1.19097E-02 8.14181E-03-2.50003E+02
 -1        66 7.28889E+02 1.16345E+03 3.18361E+03-2.12505E-03 7.09609E-03-1.39951E+02
 -1        67-9.44835E+00 6.32979E+01 2.17424E+02-1.19097E-02 8.14180E-03-2.49941E+02
 -1        68 7.29116E+02 1.16357E+03 3.18376E+03-2.12505E-03 7.09609E-03-1.39981E+02
 -1        69-7.04408E+00 5.28400E+01 1.81929E+02 6.85704E-03-1.48248E-02-2.53664E+02
 -1        70 5.37612E+02 8.37576E+02 2.27243E+03 4.86453E-03-1.17924E-02-1.67148E+02
 -1        71-7.00452E+00 5.28388E+01 1.81886E+02 6.85704E-03-1.48248E-02-2.53648E+02
 -1        72 5.37735E+02 8.37722E+02 2.27280E+03 4.86453E-03-1.17924E-02-1.67110E+02
 -1        73 1.01372E+01 5.14578E+01 1.61209E+02-9.00233E-03 1.21174E-03-2.28733E+02
 -1        74 3.13966E+02 5.00641E+02 1.36174E+03 4.05377E-03 4.35981E-02-1.31440E+02
 -1        75 1.01244E+01 5.15132E+01 1.61403E+02-9.00233E-03 1.21173E-03-2.28485E+02
 -1        76 3.14259E+02 5.00778E+02 1.36191E+03 4.05382E-03 4.35981E-02-1.31220E+02
 -1        77 6.17890E+00 3.36985E+01 1.05977E+02 2.64149E-02 9.52995E-03-1.42565E+02
 -1        78 3.60083E+02 3.50562E+02 8.11030E+02-6.46839E-03-5.75830E-03-1.62501E+02
 -1        79 6.33956E+00 3.37716E+01 1.06061E+02 2.64149E-02 9.52995E-03-1.42664E+02
 -1        80 3.59364E+02 3.50238E+02 8.10666E+02-6.46839E-03-5.75830E-03-1.62609E+02
 -1        81 1.24176E+01 2.18918E+01 6.12048E+01-3.96627E-02 2.99613E-03-3.45291E+01
 -1        82-2.77842E+02 2.59377E+01 3.65423E+02-1.94279E-03 3.66246E-02-1.31377E+02
 -1        83 1.19348E+01 2.16497E+01 6.08773E+01-3.96626E-02 2.99612E-03-3.46850E+01
 -1        84-2.76673E+02 2.66547E+01 3.66645E+02-1.94279E-03 3.66248E-02-1.31150E+02
 -1        85 7.91427E+03 7.63773E+03 1.87745E+04 1.19829E-04 1.27131E-04 5.45362E+03
 -1        86 2.59919E+03 5.09918E+03 1.50990E+04 2.27688E-02 7.23492E-03 1.90608E+03
 -1        87 7.91435E+03 7.63779E+03 1.87746E+04 1.19831E-04 1.27131E-04 5.45378E+03
 -1        88 2.59907E+03 5.09912E+03 1.50989E+04 2.27688E-02 7.23493E-03 1.90617E+03
 -1        89 2.98395E+03 4.36742E+03 1.20452E+04 3.21611E-02-1.49489E-03 1.39342E+03
 -1        90 2.98348E+03 4.36717E+03 1.20448E+04 3.21610E-02-1.49488E-03 1.39342E+03
 -1        91 2.01972E+03 3.01626E+03 8.27036E+03 5.81184E-03-1.42912E-02 1.34279E+03
 -1        92 2.01944E+03 3.01612E+03 8.27019E+03 5.81183E-03-1.42912E-02 1.34287E+03
 -1        93 1.34302E+03 1.93654E+03 5.21521E+03 1.85457E-02-4.20615E-03 1.07311E+03
 -1        94 1.34266E+03 1.93641E+03 5.21513E+03 1.85457E-02-4.20613E-03 1.07326E+03
 -1        95 6.88259E+02 9.69944E+02 2.57776E+03 3.48746E-02-4.70308E-03 7.94496E+02
 -1        96 6.87977E+02 9.69843E+02 2.57770E+03 3.48745E-02-4.70308E-03 7.94499E+02
 -1        97 1.17170E+02 1.32176E+02 3.31011E+02-1.93447E-03 4.90929E-03 5.26234E+02
 -1        98 1.16907E+02 1.32093E+02 3.30993E+02-1.93447E-03 4.90929E-03 5.26133E+02
 -1        99-3.87382E+02-5.97560E+02-1.59215E+03-1.82437E-03 6.08105E-03 2.93469E+02
 -1       100-3.87724E+02-5.97734E+02-1.59239E+03-1.82436E-03 6.08104E-03 2.93498E+02
 -1       101-8.08860E+02-1.20029E+03-3.15746E+03 1.74683E-02-6.91152E-03 9.34633E+01
 -1       102-8.09248E+02-1.20048E+03-3.15772E+03 1.74682E-02-6.91150E-03 9.35803E+01
 -1       103-1.12852E+03-1.64815E+03-4.30371E+03 2.19706E-02-3.93913E-03-6.67630E+01
 -1       104-1.12881E+03-1.64826E+03-4.30378E+03 2.19705E-02-3.93912E-03-6.67013E+01
 -1       105-1.33370E+03-1.92804E+03-5.01020E+03 2.35606E-02 6.08277E-04-1.80994E+02
 -1       106-1.33395E+03-1.92816E+03-5.01034E+03 2.35606E-02 6.08272E-04-1.81022E+02
 -1       107-1.41710E+03-2.03764E+03-5.28305E+03 1.11094E-02-8.79213E-03-2.52136E+02
 -1       108-1.41750E+03-2.03786E+03-5.28337E+03 1.11094E-02-8.79211E-03-2.52128E+02
 -1       109-1.38954E+03-1.99226E+03-5.16371E+03 5.40547E-03-1.51189E-02-2.83224E+02
 -1       110-1.38972E+03-1.99235E+03-5.16382E+03 5.40546E-03-1.51189E-02-2.83194E+02
 -1       111-1.29446E+03-1.83875E+03-4.76059E+03-1.46038E-02-9.92278E-03-2.84274E+02
 -1       112-1.29447E+03-1.83870E+03-4.76041E+03-1.46038E-02-9.92280E-03-2.84167E+02
 -1       113-1.14851E+03-1.61669E+03-4.18329E+03 1.94776E-02 7.57307E-03-2.74603E+02
 -1       114-1.14900E+03-1.61689E+03-4.18343E+03 1.94776E-02 7.57308E-03-2.74587E+02
 -1       115-9.46192E+02-1.33872E+03-3.47661E+03 1.11430E-02-3.45125E-03-2.59570E+02
 -1       116-9.46121E+02-1.33879E+03-3.47691E+03 1.11430E-02-3.45125E-03-2.59602E+02
 -1       117-7.44350E+02-1.03604E+03-2.68520E+03-4.53669E-03-2.97865E-02-2.40867E+02
 -1       118-7.44567E+02-1.03616E+03-2.68540E+03-4.53672E-03-2.97865E-02-2.40679E+02
 -1       119-5.34346E+02-7.17018E+02-1.84391E+03-1.70701E-03-1.43663E-02-2.30584E+02
 -1       120-5.34114E+02-7.16891E+02-1.84372E+03-1.70701E-03-1.43663E-02-2.30526E+02
 -1       121-2.80041E+02-3.87087E+02-1.00649E+03 1.54547E-02-1.92646E-02-1.85657E+02
 -1       122-2.80512E+02-3.87264E+02-1.00660E+03 1.54547E-02-1.92646E-02-1.85590E+02
 -1       123-2.80737E+02-2.14944E+02-4.34514E+02-2.13253E-02-3.75081E-03-1.93802E+02
 -1       124-2.79840E+02-2.14621E+02-4.34338E+02-2.13253E-02-3.75084E-03-1.93665E+02
 -1       125 4.37891E+02 1.60744E+02 9.92569E+01 3.62844E-02-4.32189E-02-2.64781E+02
 -1       126 4.35949E+02 1.59708E+02 9.77400E+01 3.62841E-02-4.32186E-02-2.64151E+02
 -3
    1PSTEP                        67          17           3          
  100CL  117 3.70000E-01         126                     1   17           1
 -4  TOSTRAIN    6    1
 -5  EXX         1    4    1    1
 -5  EYY         1    4    2    2
 -5  EZZ         1    4    3    3
 -5  EXY         1    4    1    2
 -5  EYZ         1    4    2    3
 -5  EZX         1    4    3    1
 -1         1-1.06578E-04-2.23799E-16-3.47914E-02 2.28049E-10-3.69541E-13 1.53820E-02
 -1         2-1.05340E-04-8.04868E-16-8.32254E-04 8.46932E-11-3.86692E-13 1.13464E-02
 -1         3-7.48959E-05 4.47350E-15-6.12889E-04 5.23897E-08 1.60748E-08 3.25647E-03
 -1         4 8.62139E-03 9.10157E-16-3.17775E-02-2.54966E-08 3.16989E-08 4.53283E-03
 -1         5-1.06576E-04-2.23799E-16-3.47911E-02 2.28044E-10-3.69541E-13 1.53819E-02
 -1         6-1.05339E-04-8.04868E-16-8.32072E-04 8.46982E-11-3.86692E-13 1.13467E-02
 -1         7-7.54898E-05 4.47350E-15-6.12739E-04 5.23896E-08 1.60749E-08 3.25664E-03
 -1         8 8.62045E-03 9.10157E-16-3.17772E-02-2.54965E-08 3.16989E-08 4.53296E-03
 -1         9-1.59762E-04 3.91289E-15-2.78873E-04 4.62621E-08 2.73282E-08 3.72678E-03
 -1        10 4.81457E-03 5.90962E-15-2.46003E-02 1.16419E-08 6.02041E-08 2.50911E-03
 -1        11-1.60320E-04 3.91289E-15-2.78912E-04 4.62621E-08 2.73282E-08 3.72675E-03
 -1        12 4.81415E-03 5.90962E-15-2.46001E-02 1.16420E-08 6.02041E-08 2.50922E-03
 -1        13-1.16807E-04-1.07321E-15-6.33399E-05-2.12349E-08 1.12113E-08 3.17055E-03
 -1        14 3.68433E-03 1.19913E-14-1.70331E-02-6.00408E-08 6.01461E-08 2.53008E-03
 -1        15-1.17304E-04-1.07321E-15-6.34643E-05-2.12349E-08 1.12113E-08 3.17070E-03
 -1        16 3.68386E-03 1.19913E-14-1.70335E-02-6.00407E-08 6.01461E-08 2.53018E-03
 -1        17-1.48372E-04-1.88328E-15 1.28299E-04-7.42665E-09 6.65204E-09 2.78569E-03
 -1        18 2.23252E-03 3.54549E-15-1.06234E-02-5.41950E-08-7.20112E-10 2.13413E-03
 -1        19-1.49065E-04-1.88328E-15 1.28351E-04-7.42664E-09 6.65204E-09 2.78597E-03
 -1        20 2.23195E-03 3.54549E-15-1.06237E-02-5.41950E-08-7.20140E-10 2.13435E-03
 -1        21-1.80046E-04 5.57605E-15 2.74360E-04 6.62727E-08 1.97757E-08 2.39210E-03
 -1        22 1.04570E-03-1.99063E-15-5.04340E-03 2.38934E-08 4.40367E-09 1.84279E-03
 -1        23-1.80589E-04 5.57605E-15 2.74375E-04 6.62727E-08 1.97757E-08 2.39200E-03
 -1        24 1.04519E-03-1.99063E-15-5.04341E-03 2.38934E-08 4.40367E-09 1.84264E-03
 -1        25-2.00876E-04 2.43435E-15 3.62874E-04-4.93936E-08 9.36931E-09 2.05525E-03
 -1        26 1.49021E-05 8.04994E-15-2.46542E-04-7.05892E-08-1.62033E-09 1.57662E-03
 -1        27-2.01251E-04 2.43435E-15 3.62727E-04-4.93936E-08 9.36934E-09 2.05484E-03
 -1        28 1.46480E-05 8.04994E-15-2.46680E-04-7.05892E-08-1.62028E-09 1.57616E-03
 -1        29-2.32476E-04 4.59291E-15 4.25082E-04-5.48463E-08-4.42580E-09 1.74467E-03
 -1        30-8.91759E-04 2.21200E-14 3.87927E-03-1.07594E-07-1.83812E-08 1.33618E-03
 -1        31-2.33074E-04 4.59291E-15 4.25023E-04-5.48463E-08-4.42581E-09 1.74471E-03
 -1        32-8.92393E-04 2.21200E-14 3.87927E-03-1.07594E-07-1.83812E-08 1.33614E-03
 -1        33-2.68077E-04-1.69643E-15 4.82319E-04 6.75130E-10-2.16525E-10 1.38259E-03
 -1        34-1.65136E-03 4.42958E-15 7.28821E-03-5.59794E-08-2.11597E-09 1.05868E-03
 -1        35-2.68766E-04-1.69643E-15 4.82391E-04 6.75130E-10-2.16525E-10 1.38286E-03
 -1        36-1.65204E-03 4.42958E-15 7.28827E-03-5.59794E-08-2.11600E-09 1.05895E-03
 -1        37-3.03614E-04 8.08581E-17 5.38247E-04 1.99539E-08 7.48099E-09 9.60078E-04
 -1        38-2.22049E-03-4.28889E-16 9.83366E-03-1.17032E-08-7.25176E-09 7.35131E-04
 -1        39-3.04118E-04 8.08581E-17 5.38281E-04 1.99539E-08 7.48100E-09 9.60201E-04
 -1        40-2.22087E-03-4.28889E-16 9.83366E-03-1.17032E-08-7.25176E-09 7.35243E-04
 -1        41-3.35056E-04 2.77995E-15 5.85637E-04 4.26147E-08 5.01991E-09 5.19775E-04
 -1        42-2.58336E-03-1.01537E-15 1.14316E-02 1.10330E-08-1.78566E-09 3.98808E-04
 -1        43-3.35446E-04 2.77995E-15 5.85609E-04 4.26147E-08 5.01990E-09 5.19650E-04
 -1        44-2.58374E-03-1.01537E-15 1.14316E-02 1.10330E-08-1.78567E-09 3.98624E-04
 -1        45-3.46135E-04-1.11227E-15 6.13352E-04-1.13713E-08 2.33065E-09 9.96944E-05
 -1        46-2.72545E-03 5.42207E-15 1.20869E-02-5.93735E-08 5.86458E-09 7.95837E-05
 -1        47-3.46720E-04-1.11227E-15 6.13361E-04-1.13713E-08 2.33065E-09 9.96452E-05
 -1        48-2.72603E-03 5.42207E-15 1.20870E-02-5.93735E-08 5.86460E-09 7.94699E-05
 -1        49-3.35279E-04-1.15319E-15 6.27513E-04-5.99573E-09 6.34311E-09-2.48873E-04
 -1        50-2.66151E-03 2.36579E-15 1.18899E-02-3.36844E-08 1.94474E-08-1.85195E-04
 -1        51-3.35604E-04-1.15319E-15 6.27481E-04-5.99572E-09 6.34311E-09-2.48827E-04
 -1        52-2.66184E-03 2.36579E-15 1.18902E-02-3.36844E-08 1.94474E-08-1.85124E-04
 -1        53-3.29890E-04 6.97791E-15 6.34162E-04-6.42677E-08-2.47164E-09-4.92625E-04
 -1        54-2.46345E-03 9.05107E-15 1.10324E-02-6.10590E-08 5.07266E-08-3.72754E-04
 -1        55-3.29982E-04 6.97791E-15 6.34043E-04-6.42677E-08-2.47163E-09-4.92406E-04
 -1        56-2.46342E-03 9.05107E-15 1.10318E-02-6.10589E-08 5.07266E-08-3.72404E-04
 -1        57-3.10506E-04-2.28523E-15 6.10634E-04-1.85978E-08-1.26522E-08-6.56084E-04
 -1        58-2.17447E-03 7.03283E-15 9.76092E-03-2.38919E-08-7.17563E-08-5.01899E-04
 -1        59-3.11024E-04-2.28523E-15 6.10735E-04-1.85978E-08-1.26522E-08-6.55965E-04
 -1        60-2.17454E-03 7.03283E-15 9.76027E-03-2.38919E-08-7.17562E-08-5.01945E-04
 -1        61-2.46058E-04 6.97028E-15 5.54608E-04 7.42449E-08 1.45853E-08-7.66749E-04
 -1        62-1.79533E-03 5.67322E-15 8.22318E-03 4.13853E-08-5.57951E-08-5.90725E-04
 -1        63-2.46028E-04 6.97028E-15 5.54839E-04 7.42448E-08 1.45853E-08-7.66947E-04
 -1        64-1.79573E-03 5.67322E-15 8.22374E-03 4.13853E-08-5.57952E-08-5.91098E-04
 -1        65-2.13304E-04-1.57069E-15 4.83358E-04-3.92794E-08 2.55804E-08-8.27929E-04
 -1        66-1.39756E-03-1.03967E-15 6.45936E-03-7.39462E-09 2.26697E-08-6.32251E-04
 -1        67-2.13273E-04-1.57069E-15 4.82985E-04-3.92794E-08 2.55804E-08-8.27720E-04
 -1        68-1.39718E-03-1.03967E-15 6.45947E-03-7.39463E-09 2.26697E-08-6.32343E-04
 -1        69-1.72549E-04 3.77533E-15 3.99161E-04 2.30942E-08-4.77204E-08-8.34264E-04
 -1        70-9.58966E-04-2.14747E-15 4.59939E-03 1.64499E-08-3.77661E-08-6.39734E-04
 -1        71-1.72422E-04 3.77533E-15 3.99029E-04 2.30942E-08-4.77204E-08-8.34205E-04
 -1        72-9.59045E-04-2.14747E-15 4.60010E-03 1.64499E-08-3.77661E-08-6.39619E-04
 -1        73-1.15428E-04-4.65641E-15 3.37570E-04-2.93087E-08 3.55461E-09-7.49643E-04
 -1        74-5.94632E-04 2.55433E-14 2.76844E-03 1.11775E-08 1.41410E-07-4.75046E-04
 -1        75-1.15668E-04-4.65641E-15 3.38049E-04-2.93087E-08 3.55461E-09-7.48846E-04
 -1        76-5.94146E-04 2.55433E-14 2.76855E-03 1.11777E-08 1.41410E-07-4.74330E-04
 -1        77-7.72517E-05 4.98600E-15 2.22954E-04 8.54511E-08 3.21284E-08-4.67337E-04
 -1        78 4.41283E-05-6.92643E-15 1.47703E-03-2.07840E-08-1.89847E-08-5.45492E-04
 -1        79-7.69614E-05 4.98600E-15 2.22981E-04 8.54511E-08 3.21284E-08-4.67654E-04
 -1        80 4.28536E-05-6.92643E-15 1.47690E-03-2.07841E-08-1.89847E-08-5.45857E-04
 -1        81-2.94915E-05 6.48905E-15 1.24986E-04-1.29012E-07 8.06227E-09-1.13795E-04
 -1        82-9.78256E-04 1.72642E-14 1.09034E-03-7.72576E-09 1.18822E-07-4.52701E-04
 -1        83-3.02557E-05 6.48905E-15 1.24698E-04-1.29012E-07 8.06244E-09-1.14309E-04
 -1        84-9.76801E-04 1.72642E-14 1.09199E-03-7.72567E-09 1.18822E-07-4.51959E-04
 -1        85-1.04102E-04-1.94504E-15 3.40936E-02 2.33027E-10-3.12939E-13 1.60018E-02
 -1        86-8.77118E-03 1.04941E-14 3.11837E-02 7.26605E-08 2.48238E-08 4.46757E-03
 -1        87-1.04103E-04-1.94504E-15 3.40939E-02 2.33030E-10-3.12939E-13 1.60023E-02
 -1        88-8.77143E-03 1.04941E-14 3.11837E-02 7.26605E-08 2.48239E-08 4.46784E-03
 -1        89-5.13409E-03 1.89876E-14 2.43282E-02 1.04212E-07 1.59343E-09 2.49914E-03
 -1        90-5.13479E-03 1.89876E-14 2.43277E-02 1.04212E-07 1.59339E-09 2.49915E-03
 -1        91-3.91794E-03 1.35029E-15 1.71182E-02 2.29107E-08-4.38294E-08 2.51444E-03
 -1        92-3.91847E-03 1.35029E-15 1.71181E-02 2.29107E-08-4.38294E-08 2.51464E-03
 -1        93-2.52926E-03 5.18468E-15 1.09781E-02 6.13157E-08-7.75438E-09 2.14952E-03
 -1        94-2.53008E-03 5.18468E-15 1.09784E-02 6.13157E-08-7.75435E-09 2.14988E-03
 -1        95-1.40579E-03 2.22698E-14 5.62659E-03 1.14265E-07-3.32554E-09 1.85885E-03
 -1        96-1.40637E-03 2.22698E-14 5.62672E-03 1.14265E-07-3.32558E-09 1.85878E-03
 -1        97-4.16654E-04-2.51566E-15 9.93384E-04-8.03100E-09 1.51968E-08 1.59131E-03
 -1        98-4.17150E-04-2.51566E-15 9.93517E-04-8.03099E-09 1.51968E-08 1.59091E-03
 -1        99 4.26808E-04-9.52495E-16-3.00876E-03-8.06180E-09 1.91141E-08 1.35362E-03
 -1       100 4.26246E-04-9.52495E-16-3.00895E-03-8.06180E-09 1.91141E-08 1.35368E-03
 -1       101 1.11521E-03 5.30087E-15-6.29540E-03 5.88429E-08-1.67087E-08 1.07773E-03
 -1       102 1.11451E-03 5.30087E-15-6.29554E-03 5.88429E-08-1.67087E-08 1.07807E-03
 -1       103 1.61327E-03 9.48244E-15-8.71781E-03 7.23880E-08-6.16855E-09 7.52570E-04
 -1       104 1.61264E-03 9.48244E-15-8.71765E-03 7.23879E-08-6.16854E-09 7.52703E-04
 -1       105 1.91325E-03 1.09219E-14-1.02176E-02 7.62731E-08 8.35290E-09 4.09586E-04
 -1       106 1.91285E-03 1.09219E-14-1.02177E-02 7.62730E-08 8.35288E-09 4.09464E-04
 -1       107 2.03318E-03 2.70178E-15-1.08068E-02 3.80841E-08-2.63154E-08 8.07990E-05
 -1       108 2.03259E-03 2.70178E-15-1.08072E-02 3.80841E-08-2.63154E-08 8.08046E-05
 -1       109 1.99095E-03 3.55637E-15-1.05705E-02 2.04615E-08-4.86590E-08-1.89711E-04
 -1       110 1.99064E-03 3.55637E-15-1.05705E-02 2.04615E-08-4.86590E-08-1.89632E-04
 -1       111 1.80367E-03 3.12200E-15-9.72584E-03-4.59798E-08-3.48869E-08-3.81295E-04
 -1       112 1.80345E-03 3.12200E-15-9.72538E-03-4.59798E-08-3.48869E-08-3.80974E-04
 -1       113 1.55346E-03 4.37767E-15-8.52366E-03 6.23841E-08 2.73566E-08-5.18203E-04
 -1       114 1.55249E-03 4.37767E-15-8.52351E-03 6.23840E-08 2.73567E-08-5.18194E-04
 -1       115 1.30322E-03 1.05889E-15-7.07995E-03 3.66063E-08-1.02146E-08-6.02983E-04
 -1       116 1.30367E-03 1.05889E-15-7.08070E-03 3.66064E-08-1.02146E-08-6.03059E-04
 -1       117 9.70951E-04 1.30208E-14-5.44558E-03-1.26316E-08-9.77216E-08-6.42172E-04
 -1       118 9.70630E-04 1.30208E-14-5.44580E-03-1.26318E-08-9.77215E-08-6.41556E-04
 -1       119 6.13868E-04 4.19687E-15-3.71350E-03-4.74874E-09-4.70165E-08-6.76319E-04
 -1       120 6.14202E-04 4.19687E-15-3.71329E-03-4.74873E-09-4.70165E-08-6.76128E-04
 -1       121 3.63775E-04 7.95571E-15-2.03879E-03 5.11134E-08-6.19805E-08-5.70236E-04
 -1       122 3.62810E-04 7.95571E-15-2.03858E-03 5.11133E-08-6.19805E-08-5.70035E-04
 -1       123-1.98632E-04-3.75682E-15-7.32008E-04-6.91475E-08-1.31566E-08-6.24032E-04
 -1       124-1.96776E-04-3.75682E-15-7.32469E-04-6.91475E-08-1.31566E-08-6.23555E-04
 -1       125 9.19273E-04 3.17470E-14-2.22461E-04 1.19468E-07-1.38852E-07-8.44873E-04
 -1       126 9.16290E-04 3.17470E-14-2.23970E-04 1.19468E-07-1.38852E-07-8.42858E-04
 -3
    1PSTEP                        68          17           3          
  100CL  117 3.70000E-01         126                     1   17           1
 -4  ERROR       1    1
 -5  STR(%)      1    1    0    0
 -1         1 6.13174E+01
 -1         2 6.61219E+01
 -1         3 6.61219E+01
 -1         4 6.13174E+01
 -1         5 6.13174E+01
 -1         6 6.61219E+01
 -1         7 6.61219E+01
 -1         8 6.13174E+01
 -1         9 6.36918E+01
 -1        10 6.07397E+01
 -1        11 6.36918E+01
 -1        12 6.07397E+01
 -1        13 6.31461E+01
 -1        14 6.07397E+01
 -1        15 6.31461E+01
 -1        16 6.07397E+01
 -1        17 6.06384E+01
 -1        18 5.98624E+01
 -1        19 6.06384E+01
 -1        20 5.98624E+01
 -1        21 5.57898E+01
 -1        22 5.57898E+01
 -1        23 5.57898E+01
 -1        24 5.57898E+01
 -1        25 3.17907E+01
 -1        26 3.17907E+01
 -1        27 3.17907E+01
 -1        28 3.17907E+01
 -1        29 5.90433E+01
 -1        30 5.09274E+01
 -1        31 5.90433E+01
 -1        32 5.09274E+01
 -1        33 6.61758E+01
 -1        34 5.72388E+01
 -1        35 6.61758E+01
 -1        36 5.72388E+01
 -1        37 6.61758E+01
 -1        38 5.76053E+01
 -1        39 6.61758E+01
 -1        40 5.76053E+01
 -1        41 6.53986E+01
 -1        42 5.76053E+01
 -1        43 6.53986E+01
 -1        44 5.76053E+01
 -1        45 6.36343E+01
 -1        46 5.67527E+01
 -1        47 6.36343E+01
 -1        48 5.67527E+01
 -1        49 6.45820E+01
 -1        50 5.66820E+01
 -1        51 6.45820E+01
 -1        52 5.66820E+01
 -1        53 6.59908E+01
 -1        54 5.66999E+01
 -1        55 6.59908E+01
 -1        56 5.66999E+01
 -1        57 6.72410E+01
 -1        58 5.66999E+01
 -1        59 6.72410E+01
 -1        60 5.66999E+01
 -1        61 6.81597E+01
 -1        62 5.65385E+01
 -1        63 6.81597E+01
 -1        64 5.65385E+01
 -1        65 6.81597E+01
 -1        66 5.60973E+01
 -1        67 6.81597E+01
 -1        68 5.60973E+01
 -1        69 6.79550E+01
 -1        70 5.46280E+01
 -1        71 6.79550E+01
 -1        72 5.46280E+01
 -1        73 6.49866E+01
 -1        74 5.15114E+01
 -1        75 6.49866E+01
 -1        76 5.15114E+01
 -1        77 7.57377E+01
 -1        78 7.57377E+01
 -1        79 7.57377E+01
 -1        80 7.57377E+01
 -1        81 7.57377E+01
 -1        82 7.57377E+01
 -1        83 7.57377E+01
 -1        84 7.57377E+01
 -1        85 6.61219E+01
 -1        86 6.61219E+01
 -1        87 6.61219E+01
 -1        88 6.61219E+01
 -1        89 6.36918E+01
 -1        90 6.36918E+01
 -1        91 6.31461E+01
 -1        92 6.31461E+01
 -1        93 6.06384E+01
 -1        94 6.06384E+01
 -1        95 5.41935E+01
 -1        96 5.41935E+01
 -1        97 3.02833E+01
 -1        98 3.02833E+01
 -1        99 5.90433E+01
 -1       100 5.90433E+01
 -1       101 6.61758E+01
 -1       102 6.61758E+01
 -1       103 6.61758E+01
 -1       104 6.61758E+01
 -1       105 6.53986E+01
 -1       106 6.53986E+01
 -1       107 6.36343E+01
 -1       108 6.36343E+01
 -1       109 6.45820E+01
 -1       110 6.45820E+01
 -1       111 6.59908E+01
 -1       112 6.59908E+01
 -1       113 6.72410E+01
 -1       114 6.72410E+01
 -1       115 6.81597E+01
 -1       116 6.81597E+01
 -1       117 6.81597E+01
 -1       118 6.81597E+01
 -1       119 6.79550E+01
 -1       120 6.79550E+01
 -1       121 6.49866E+01
 -1       122 6.49866E+01
 -1       123 4.43880E+01
 -1       124 4.43880E+01
 -1       125 4.06862E+01
 -1       126 4.06862E+01
 -3
    1PSTEP                        69          18           3          
  100CL  118 3.80000E-01         126                     1   18           1
 -4  DISP        4    1
 -5  D1          1    2    1    0
 -5  D2          1    2    2    0
 -5  D3          1    2    3    0
 -5  ALL         1    2    0    0    1ALL
 -1         1 0.00000E+00 0.00000E+00 0.00000E+00
 -1         2 0.00000E+00 0.00000E+00 0.00000E+00
 -1         3 1.15798E-03 0.00000E+00-5.94225E-05
 -1         4 1.58135E-03 0.00000E+00-1.86727E-03
 -1         5 0.00000E+00 0.00000E+00 0.00000E+00
 -1         6 0.00000E+00 0.00000E+00 0.00000E+00
 -1         7 1.15801E-03 0.00000E+00-5.94486E-05
 -1         8 1.58138E-03 0.00000E+00-1.86728E-03
 -1         9 4.22664E-03 0.00000E+00-1.81898E-04
 -1        10 4.37916E-03 0.00000E+00-3.47904E-03
 -1        11 4.22666E-03 0.00000E+00-1.81931E-04
 -1        12 4.37915E-03 0.00000E+00-3.47905E-03
 -1        13 8.48196E-03 0.00000E+00-3.81364E-04
 -1        14 8.49117E-03 0.00000E+00-4.73733E-03
 -1        15 8.48198E-03 0.00000E+00-3.81398E-04
 -1        16 8.49116E-03 0.00000E+00-4.73735E-03
 -1        17 1.35748E-02 0.00000E+00-6.51918E-04
 -1        18 1.34415E-02 0.00000E+00-5.69728E-03
 -1        19 1.35748E-02 0.00000E+00-6.51955E-04
 -1        20 1.34415E-02 0.00000E+00-5.69729E-03
 -1        21 1.91339E-02 0.00000E+00-9.66101E-04
 -1        22 1.88990E-02 0.00000E+00-6.38641E-03
 -1        23 1.91338E-02 0.00000E+00-9.66121E-04
 -1        24 1.88989E-02 0.00000E+00-6.38642E-03
 -1        25 2.48854E-02 0.00000E+00-1.29567E-03
 -1        26 2.45850E-02 0.00000E+00-6.83840E-03
 -1        27 2.48854E-02 0.00000E+00-1.29567E-03
 -1        28 2.45850E-02 0.00000E+00-6.83838E-03
 -1        29 3.06192E-02 0.00000E+00-1.61613E-03
 -1        30 3.02838E-02 0.00000E+00-7.07447E-03
 -1        31 3.06192E-02 0.00000E+00-1.61612E-03
 -1        32 3.02838E-02 0.00000E+00-7.07443E-03
 -1        33 3.61490E-02 0.00000E+00-1.90430E-03
 -1        34 3.58021E-02 0.00000E+00-7.10559E-03
 -1        35 3.61490E-02 0.00000E+00-1.90427E-03
 -1        36 3.58020E-02 0.00000E+00-7.10556E-03
 -1        37 4.13094E-02 0.00000E+00-2.14185E-03
 -1        38 4.09712E-02 0.00000E+00-6.95008E-03
 -1        39 4.13094E-02 0.00000E+00-2.14182E-03
 -1        40 4.09712E-02 0.00000E+00-6.95006E-03
 -1        41 4.59792E-02 0.00000E+00-2.32092E-03
 -1        42 4.56655E-02 0.00000E+00-6.64143E-03
 -1        43 4.59792E-02 0.00000E+00-2.32090E-03
 -1        44 4.56655E-02 0.00000E+00-6.64142E-03
 -1        45 5.00871E-02 0.00000E+00-2.44221E-03
 -1        46 4.98070E-02 0.00000E+00-6.22156E-03
 -1        47 5.00871E-02 0.00000E+00-2.44221E-03
 -1        48 4.98070E-02 0.00000E+00-6.22156E-03
 -1        49 5.35995E-02 0.00000E+00-2.51214E-03
 -1        50 5.33577E-02 0.00000E+00-5.73638E-03
 -1        51 5.35995E-02 0.00000E+00-2.51216E-03
 -1        52 5.33577E-02 0.00000E+00-5.73639E-03
 -1        53 5.65262E-02 0.00000E+00-2.54226E-03
 -1        54 5.63239E-02 0.00000E+00-5.23169E-03
 -1        55 5.65262E-02 0.00000E+00-2.54227E-03
 -1        56 5.63239E-02 0.00000E+00-5.23174E-03
 -1        57 5.89157E-02 0.00000E+00-2.54543E-03
 -1        58 5.87506E-02 0.00000E+00-4.74091E-03
 -1        59 5.89158E-02 0.00000E+00-2.54544E-03
 -1        60 5.87506E-02 0.00000E+00-4.74093E-03
 -1        61 6.08187E-02 0.00000E+00-2.53051E-03
 -1        62 6.06870E-02 0.00000E+00-4.29014E-03
 -1        63 6.08187E-02 0.00000E+00-2.53052E-03
 -1        64 6.06869E-02 0.00000E+00-4.29012E-03
 -1        65 6.22957E-02 0.00000E+00-2.50567E-03
 -1        66 6.21980E-02 0.00000E+00-3.91016E-03
 -1        67 6.22958E-02 0.00000E+00-2.50570E-03
 -1        68 6.21979E-02 0.00000E+00-3.91018E-03
 -1        69 6.34455E-02 0.00000E+00-2.47888E-03
 -1        70 6.33830E-02 0.00000E+00-3.62890E-03
 -1        71 6.34455E-02 0.00000E+00-2.47885E-03
 -1        72 6.33829E-02 0.00000E+00-3.62886E-03
 -1        73 6.44094E-02 0.00000E+00-2.45572E-03
 -1        74 6.43702E-02 0.00000E+00-3.45448E-03
 -1        75 6.44095E-02 0.00000E+00-2.45570E-03
 -1        76 6.43702E-02 0.00000E+00-3.45455E-03
 -1        77 6.52945E-02 0.00000E+00-2.43911E-03
 -1        78 6.52888E-02 0.00000E+00-3.37253E-03
 -1        79 6.52945E-02 0.00000E+00-2.43911E-03
 -1        80 6.52888E-02 0.00000E+00-3.37250E-03
 -1        81 6.61956E-02 0.00000E+00-2.43837E-03
 -1        82 6.61407E-02 0.00000E+00-3.32758E-03
 -1        83 6.61956E-02 0.00000E+00-2.43836E-03
 -1        84 6.61407E-02 0.00000E+00-3.32757E-03
 -1        85 0.00000E+00 0.00000E+00 0.00000E+00
 -1        86 1.63575E-03 0.00000E+00 1.70661E-03
 -1        87 0.00000E+00 0.00000E+00 0.00000E+00
 -1        88 1.63577E-03 0.00000E+00 1.70661E-03
 -1        89 4.59183E-03 0.00000E+00 3.06993E-03
 -1        90 4.59186E-03 0.00000E+00 3.06992E-03
 -1        91 8.86237E-03 0.00000E+00 3.93336E-03
 -1        92 8.86241E-03 0.00000E+00 3.93336E-03
 -1        93 1.39438E-02 0.00000E+00 4.36723E-03
 -1        94 1.39438E-02 0.00000E+00 4.36722E-03
 -1        95 1.94848E-02 0.00000E+00 4.44242E-03
 -1        96 1.94848E-02 0.00000E+00 4.44241E-03
 -1        97 2.52039E-02 0.00000E+00 4.24758E-03
 -1        98 2.52039E-02 0.00000E+00 4.24756E-03
 -1        99 3.08917E-02 0.00000E+00 3.85380E-03
 -1       100 3.08917E-02 0.00000E+00 3.85378E-03
 -1       101 3.63658E-02 0.00000E+00 3.31678E-03
 -1       102 3.63658E-02 0.00000E+00 3.31680E-03
 -1       103 4.14664E-02 0.00000E+00 2.68941E-03
 -1       104 4.14664E-02 0.00000E+00 2.68944E-03
 -1       105 4.60792E-02 0.00000E+00 2.02216E-03
 -1       106 4.60792E-02 0.00000E+00 2.02216E-03
 -1       107 5.01384E-02 0.00000E+00 1.35691E-03
 -1       108 5.01384E-02 0.00000E+00 1.35690E-03
 -1       109 5.36139E-02 0.00000E+00 7.26710E-04
 -1       110 5.36139E-02 0.00000E+00 7.26696E-04
 -1       111 5.65150E-02 0.00000E+00 1.55687E-04
 -1       112 5.65150E-02 0.00000E+00 1.55675E-04
 -1       113 5.88885E-02 0.00000E+00-3.44935E-04
 -1       114 5.88885E-02 0.00000E+00-3.44973E-04
 -1       115 6.07877E-02 0.00000E+00-7.68458E-04
 -1       116 6.07877E-02 0.00000E+00-7.68509E-04
 -1       117 6.22697E-02 0.00000E+00-1.10209E-03
 -1       118 6.22697E-02 0.00000E+00-1.10208E-03
 -1       119 6.34319E-02 0.00000E+00-1.32973E-03
 -1       120 6.34319E-02 0.00000E+00-1.32973E-03
 -1       121 6.44059E-02 0.00000E+00-1.45374E-03
 -1       122 6.44059E-02 0.00000E+00-1.45370E-03
 -1       123 6.53155E-02 0.00000E+00-1.50363E-03
 -1       124 6.53155E-02 0.00000E+00-1.50366E-03
 -1       125 6.61600E-02 0.00000E+00-1.51225E-03
 -1       126 6.61599E-02 0.00000E+00-1.51221E-03
 -3
    1PSTEP                        70          18           3          
  100CL  118 3.80000E-01         126                     1   18           1
 -4  STRESS      6    1
 -5  SXX         1    4    1    1
 -5  SYY         1    4    2    2
 -5  SZZ         1    4    3    3
 -5  SXY         1    4    1    2
 -5  SYZ         1    4    2    3
 -5  SZX         1    4    3    1
 -1         1-8.41401E+03-8.66383E+03-1.89960E+04-8.24195E-05 9.84322E-05 4.30289E+03
 -1         2-9.69528E+01-2.12338E+02-7.58320E+02-7.64546E-05 1.05304E-04 3.54666E+03
 -1         3 1.04887E+02-1.58713E+02-6.80625E+02 1.70690E-02-1.32066E-02 9.83890E+02
 -1         4-2.73482E+03-5.68065E+03-1.53565E+04 1.47862E-02-3.73856E-03 8.70042E+02
 -1         5-8.41403E+03-8.66386E+03-1.89961E+04-8.24186E-05 9.84313E-05 4.30297E+03
 -1         6-9.70597E+01-2.12455E+02-7.58592E+02-7.64552E-05 1.05304E-04 3.54676E+03
 -1         7 1.04852E+02-1.58769E+02-6.80783E+02 1.70690E-02-1.32066E-02 9.83919E+02
 -1         8-2.73491E+03-5.68070E+03-1.53566E+04 1.47862E-02-3.73855E-03 8.70073E+02
 -1         9 1.24600E+02-1.05038E+02-5.39629E+02 1.01866E-02-1.67229E-02 1.16565E+03
 -1        10-3.14695E+03-4.85627E+03-1.24778E+04-6.51878E-03-4.04862E-03 1.50680E+02
 -1        11 1.24394E+02-1.05135E+02-5.39752E+02 1.01866E-02-1.67229E-02 1.16563E+03
 -1        12-3.14736E+03-4.85647E+03-1.24781E+04-6.51877E-03-4.04862E-03 1.50699E+02
 -1        13 1.83052E+02-5.49942E+01-3.88930E+02 1.08636E-02-1.74924E-02 1.01667E+03
 -1        14-1.90023E+03-3.23599E+03-8.61930E+03-5.30849E-03-1.06661E-02 2.26342E+02
 -1        15 1.82790E+02-5.51079E+01-3.89052E+02 1.08636E-02-1.74924E-02 1.01662E+03
 -1        16-1.90061E+03-3.23616E+03-8.61948E+03-5.30848E-03-1.06661E-02 2.26349E+02
 -1        17 1.95578E+02-2.17792E+01-2.74408E+02 1.07634E-03-1.87694E-02 8.82409E+02
 -1        18-1.12578E+03-1.97919E+03-5.36506E+03-1.97052E-02-6.39746E-03 2.63138E+02
 -1        19 1.95270E+02-2.18921E+01-2.74479E+02 1.07634E-03-1.87694E-02 8.82362E+02
 -1        20-1.12624E+03-1.97937E+03-5.36522E+03-1.97052E-02-6.39746E-03 2.63117E+02
 -1        21 1.76468E+02 7.04841E-01-1.72138E+02-1.04582E-02-1.03349E-02 7.25940E+02
 -1        22-4.44998E+02-9.15078E+02-2.57580E+03-4.17841E-02-4.23675E-03 3.46909E+02
 -1        23 1.76054E+02 5.77860E-01-1.72147E+02-1.04582E-02-1.03349E-02 7.25987E+02
 -1        24-4.45595E+02-9.15300E+02-2.57594E+03-4.17840E-02-4.23677E-03 3.46969E+02
 -1        25 1.54546E+02 2.11971E+01-8.01488E+01 8.74279E-03 9.36428E-04 6.05070E+02
 -1        26 1.01120E+02-5.13994E+01-2.65671E+02-2.01233E-02 8.35798E-03 4.42414E+02
 -1        27 1.54235E+02 2.10995E+01-8.01619E+01 8.74278E-03 9.36435E-04 6.05202E+02
 -1        28 1.00650E+02-5.15486E+01-2.65697E+02-2.01233E-02 8.35796E-03 4.42585E+02
 -1        29 1.33705E+02 4.35907E+01 1.34481E+01 9.35559E-03 5.78680E-03 5.12558E+02
 -1        30 5.47627E+02 6.66609E+02 1.69007E+03-8.12230E-03 1.81549E-02 5.30986E+02
 -1        31 1.33466E+02 4.35096E+01 1.34182E+01 9.35558E-03 5.78681E-03 5.12614E+02
 -1        32 5.47271E+02 6.66464E+02 1.68994E+03-8.12228E-03 1.81549E-02 5.31060E+02
 -1        33 1.00348E+02 6.61570E+01 1.18457E+02-1.86003E-03 1.21145E-02 4.14924E+02
 -1        34 8.86218E+02 1.25241E+03 3.33065E+03-2.41277E-02 1.38911E-02 5.74532E+02
 -1        35 9.99966E+01 6.60308E+01 1.18387E+02-1.86002E-03 1.21145E-02 4.14933E+02
 -1        36 8.85702E+02 1.25216E+03 3.33035E+03-2.41276E-02 1.38911E-02 5.74519E+02
 -1        37 6.60477E+01 9.02743E+01 2.29148E+02 5.13924E-03 1.54784E-02 3.01863E+02
 -1        38 1.12767E+03 1.69799E+03 4.60642E+03-1.91464E-02 9.41198E-03 5.56999E+02
 -1        39 6.57063E+01 9.01188E+01 2.28973E+02 5.13924E-03 1.54783E-02 3.01855E+02
 -1        40 1.12715E+03 1.69775E+03 4.60615E+03-1.91463E-02 9.41197E-03 5.56987E+02
 -1        41 3.99969E+01 1.13456E+02 3.29199E+02 7.85632E-04 8.01237E-03 1.87773E+02
 -1        42 1.27792E+03 1.99285E+03 5.46583E+03-1.91855E-02 7.25637E-03 4.89097E+02
 -1        43 3.96828E+01 1.13275E+02 3.28909E+02 7.85631E-04 8.01236E-03 1.87777E+02
 -1        44 1.27747E+03 1.99264E+03 5.46556E+03-1.91855E-02 7.25636E-03 4.89104E+02
 -1        45 2.00770E+01 1.31900E+02 4.09056E+02-1.69519E-04-1.98666E-03 7.81226E+01
 -1        46 1.33591E+03 2.13532E+03 5.89772E+03-1.74541E-02 7.50285E-04 3.83847E+02
 -1        47 1.98030E+01 1.31742E+02 4.08805E+02-1.69519E-04-1.98666E-03 7.81526E+01
 -1        48 1.33550E+03 2.13511E+03 5.89743E+03-1.74541E-02 7.50282E-04 3.83872E+02
 -1        49 5.22247E+00 1.42398E+02 4.58840E+02 2.30328E-03-7.00119E-03-2.34442E+01
 -1        50 1.31375E+03 2.13634E+03 5.92363E+03-1.80093E-02-4.94336E-03 2.57037E+02
 -1        51 4.91144E+00 1.42251E+02 4.58662E+02 2.30327E-03-7.00119E-03-2.34125E+01
 -1        52 1.31320E+03 2.13603E+03 5.92313E+03-1.80093E-02-4.94335E-03 2.57040E+02
 -1        53 4.38470E+00 1.46432E+02 4.73962E+02 6.69741E-03-7.05321E-03-9.79634E+01
 -1        54 1.24375E+03 2.03177E+03 5.63360E+03-2.16087E-02-2.88043E-02 1.40360E+02
 -1        55 3.94670E+00 1.46258E+02 4.73820E+02 6.69739E-03-7.05321E-03-9.79772E+01
 -1        56 1.24315E+03 2.03151E+03 5.63331E+03-2.16086E-02-2.88043E-02 1.40249E+02
 -1        57 1.52626E+01 1.47011E+02 4.67140E+02 1.67701E-02-2.72884E-03-1.50348E+02
 -1        58 1.13639E+03 1.85223E+03 5.12492E+03-1.42393E-02-1.11102E-02 4.37265E+01
 -1        59 1.50495E+01 1.46924E+02 4.67067E+02 1.67701E-02-2.72884E-03-1.50365E+02
 -1        60 1.13592E+03 1.85213E+03 5.12505E+03-1.42392E-02-1.11102E-02 4.36685E+01
 -1        61 8.94477E+00 1.36138E+02 4.40012E+02-8.66924E-03-4.33611E-03-2.11264E+02
 -1        62 9.66787E+02 1.58905E+03 4.39526E+03-2.84342E-02 9.37046E-03-5.23052E+01
 -1        63 8.54554E+00 1.35939E+02 4.39746E+02-8.66923E-03-4.33611E-03-2.11156E+02
 -1        64 9.66369E+02 1.58887E+03 4.39508E+03-2.84341E-02 9.37044E-03-5.22230E+01
 -1        65 1.52548E+01 1.25387E+02 4.00428E+02 1.61440E-02-1.24189E-02-2.74183E+02
 -1        66 7.62637E+02 1.24933E+03 3.44296E+03-1.60945E-02-1.11836E-02-1.38680E+02
 -1        67 1.49528E+01 1.25300E+02 4.00442E+02 1.61440E-02-1.24189E-02-2.74182E+02
 -1        68 7.62016E+02 1.24910E+03 3.44279E+03-1.60945E-02-1.11836E-02-1.38648E+02
 -1        69 3.53650E+01 1.15347E+02 3.48304E+02 2.83411E-03 1.20009E-02-2.82422E+02
 -1        70 5.66531E+02 8.77792E+02 2.37987E+03-2.24342E-02 2.01042E-02-1.77887E+02
 -1        71 3.50842E+01 1.15286E+02 3.48383E+02 2.83411E-03 1.20009E-02-2.82342E+02
 -1        72 5.65897E+02 8.77460E+02 2.37939E+03-2.24342E-02 2.01042E-02-1.77824E+02
 -1        73 3.83016E+01 9.50276E+01 2.78582E+02 1.97289E-02 1.13566E-02-2.31506E+02
 -1        74 3.13037E+02 4.98284E+02 1.35497E+03-1.21114E-02-3.46113E-02-1.31629E+02
 -1        75 3.80730E+01 9.49050E+01 2.78404E+02 1.97289E-02 1.13566E-02-2.31672E+02
 -1        76 3.12360E+02 4.97986E+02 1.35465E+03-1.21113E-02-3.46113E-02-1.31855E+02
 -1        77 2.27750E+01 5.56757E+01 1.62768E+02-2.70947E-03 1.66353E-03-1.26079E+02
 -1        78 3.56123E+02 3.42729E+02 7.88721E+02-6.96128E-03 1.49513E-02-1.44870E+02
 -1        79 2.24334E+01 5.55146E+01 1.62571E+02-2.70946E-03 1.66353E-03-1.26077E+02
 -1        80 3.56213E+02 3.42872E+02 7.89108E+02-6.96129E-03 1.49513E-02-1.44823E+02
 -1        81 2.54612E+01 3.43200E+01 8.95545E+01-7.18088E-03 6.05650E-03-1.97311E+01
 -1        82-2.68541E+02 2.42068E+01 3.50234E+02-2.37815E-02 6.43924E-03-1.09426E+02
 -1        83 2.57512E+01 3.44669E+01 8.97555E+01-7.18088E-03 6.05650E-03-1.97958E+01
 -1        84-2.68972E+02 2.39781E+01 3.49903E+02-2.37815E-02 6.43924E-03-1.09524E+02
 -1        85 8.15322E+03 7.86487E+03 1.93601E+04 1.78786E-05 5.72080E-05 5.59084E+03
 -1        86 2.73623E+03 5.28634E+03 1.56320E+04 1.03366E-02-4.10578E-03 1.96207E+03
 -1        87 8.15320E+03 7.86484E+03 1.93600E+04 1.78773E-05 5.72087E-05 5.59091E+03
 -1        88 2.73635E+03 5.28638E+03 1.56320E+04 1.03366E-02-4.10578E-03 1.96204E+03
 -1        89 3.14823E+03 4.53738E+03 1.24816E+04 1.06532E-02-5.58281E-03 1.47783E+03
 -1        90 3.14824E+03 4.53740E+03 1.24816E+04 1.06532E-02-5.58281E-03 1.47778E+03
 -1        91 2.13436E+03 3.09789E+03 8.43859E+03 1.80801E-02-1.31054E-03 1.42975E+03
 -1        92 2.13420E+03 3.09782E+03 8.43852E+03 1.80801E-02-1.31055E-03 1.42965E+03
 -1        93 1.41434E+03 1.93107E+03 5.12295E+03 1.02969E-02-8.58640E-03 1.11161E+03
 -1        94 1.41413E+03 1.93097E+03 5.12285E+03 1.02969E-02-8.58640E-03 1.11151E+03
 -1        95 7.21650E+02 9.19301E+02 2.37148E+03 7.13459E-03-5.21795E-03 7.83635E+02
 -1        96 7.21292E+02 9.19147E+02 2.37133E+03 7.13458E-03-5.21795E-03 7.83637E+02
 -1        97 1.48494E+02 9.92008E+01 1.88681E+02 1.79440E-02-1.00349E-02 4.99322E+02
 -1        98 1.48293E+02 9.91026E+01 1.88555E+02 1.79440E-02-1.00349E-02 4.99423E+02
 -1        99-3.29065E+02-5.75069E+02-1.57616E+03 1.71707E-02-7.31845E-03 2.73065E+02
 -1       100-3.29152E+02-5.75059E+02-1.57604E+03 1.71707E-02-7.31844E-03 2.73141E+02
 -1       101-7.32607E+02-1.12532E+03-2.98760E+03 1.29384E-02 1.12026E-02 8.41890E+01
 -1       102-7.32815E+02-1.12535E+03-2.98748E+03 1.29384E-02 1.12026E-02 8.41970E+01
 -1       103-1.04149E+03-1.53347E+03-4.01693E+03 1.24944E-02 1.68848E-02-6.72944E+01
 -1       104-1.04171E+03-1.53358E+03-4.01710E+03 1.24944E-02 1.68848E-02-6.73325E+01
 -1       105-1.23857E+03-1.78751E+03-4.64970E+03 2.74935E-03 6.24050E-04-1.70504E+02
 -1       106-1.23874E+03-1.78765E+03-4.64998E+03 2.74935E-03 6.24049E-04-1.70497E+02
 -1       107-1.33176E+03-1.89711E+03-4.91406E+03 2.23684E-03-7.32474E-03-2.32804E+02
 -1       108-1.33185E+03-1.89716E+03-4.91416E+03 2.23683E-03-7.32474E-03-2.32751E+02
 -1       109-1.33607E+03-1.88004E+03-4.85507E+03 9.97888E-03-6.79439E-03-2.67230E+02
 -1       110-1.33621E+03-1.88009E+03-4.85513E+03 9.97887E-03-6.79438E-03-2.67165E+02
 -1       111-1.25805E+03-1.76113E+03-4.54659E+03 2.33903E-02-6.14603E-03-2.72402E+02
 -1       112-1.25846E+03-1.76134E+03-4.54687E+03 2.33903E-02-6.14603E-03-2.72412E+02
 -1       113-1.11748E+03-1.57092E+03-4.06638E+03 7.00617E-03-1.90244E-02-2.59288E+02
 -1       114-1.11738E+03-1.57093E+03-4.06652E+03 7.00618E-03-1.90243E-02-2.59250E+02
 -1       115-9.57244E+02-1.32793E+03-3.43129E+03 4.66659E-03-2.57206E-02-2.60610E+02
 -1       116-9.57436E+02-1.32796E+03-3.43121E+03 4.66656E-03-2.57206E-02-2.60438E+02
 -1       117-7.32227E+02-1.00283E+03-2.58837E+03 2.04241E-02 1.31751E-03-2.74342E+02
 -1       118-7.32200E+02-1.00276E+03-2.58815E+03 2.04241E-02 1.31750E-03-2.74392E+02
 -1       119-4.79254E+02-6.34710E+02-1.62723E+03 1.43152E-02-1.56692E-03-2.60819E+02
 -1       120-4.79437E+02-6.34754E+02-1.62719E+03 1.43152E-02-1.56691E-03-2.60780E+02
 -1       121-2.21589E+02-2.97914E+02-7.69255E+02 5.65986E-03 1.55813E-02-1.89907E+02
 -1       122-2.21340E+02-2.97835E+02-7.69240E+02 5.65988E-03 1.55813E-02-1.89910E+02
 -1       123-2.37250E+02-1.55877E+02-2.81639E+02 2.26334E-02-1.24038E-02-1.80018E+02
 -1       124-2.37780E+02-1.56099E+02-2.81845E+02 2.26334E-02-1.24039E-02-1.80091E+02
 -1       125 4.60980E+02 1.97053E+02 1.97181E+02-4.77513E-02 1.87146E-02-2.54126E+02
 -1       126 4.62089E+02 1.97687E+02 1.98192E+02-4.77515E-02 1.87148E-02-2.54627E+02
 -3
    1PSTEP                        71          18           3          
  100CL  118 3.80000E-01         126                     1   18           1
 -4  TOSTRAIN    6    1
 -5  EXX         1    4    1    1
 -5  EYY         1    4    2    2
 -5  EZZ         1    4    3    3
 -5  EXY         1    4    1    2
 -5  EYZ         1    4    2    3
 -5  EZX         1    4    3    1
 -1         1-1.15068E-04-7.80338E-16-3.62620E-02-1.52666E-10 5.06919E-13 1.58132E-02
 -1         2-1.13243E-04-1.60547E-15-1.03277E-03-2.54948E-10 4.02045E-13 1.15796E-02
 -1         3 4.12272E-05 8.76593E-15-8.35562E-04 5.72322E-08-4.10718E-08 3.28463E-03
 -1         4 9.06097E-03 3.56288E-15-3.32440E-02 4.87844E-08-1.11947E-08 4.63150E-03
 -1         5-1.15066E-04-7.80338E-16-3.62621E-02-1.52665E-10 5.06919E-13 1.58135E-02
 -1         6-1.13243E-04-1.60547E-15-1.03328E-03-2.54949E-10 4.02045E-13 1.15799E-02
 -1         7 4.13107E-05 8.76593E-15-8.35890E-04 5.72322E-08-4.10718E-08 3.28473E-03
 -1         8 9.06087E-03 3.56288E-15-3.32441E-02 4.87844E-08-1.11947E-08 4.63161E-03
 -1         9-2.30557E-05 7.17979E-15-5.18003E-04 3.70444E-08-5.20547E-08 3.90237E-03
 -1        10 5.17178E-03-1.05213E-15-2.58655E-02-2.01484E-08-1.51596E-08 2.62916E-03
 -1        11-2.33925E-05 7.17979E-15-5.18092E-04 3.70444E-08-5.20547E-08 3.90231E-03
 -1        12 5.17109E-03-1.05213E-15-2.58656E-02-2.01484E-08-1.51596E-08 2.62918E-03
 -1        13 3.43381E-05 7.82216E-15-3.11638E-04 4.05124E-08-5.34820E-08 3.41731E-03
 -1        14 3.95160E-03 1.68541E-15-1.78173E-02-1.39280E-08-3.69945E-08 2.72660E-03
 -1        15 3.39003E-05 7.82216E-15-3.11694E-04 4.05124E-08-5.34820E-08 3.41710E-03
 -1        16 3.95094E-03 1.68541E-15-1.78173E-02-1.39280E-08-3.69945E-08 2.72656E-03
 -1        17 4.66229E-05 5.63248E-15-1.56941E-04 1.00126E-08-6.02838E-08 2.96358E-03
 -1        18 2.41886E-03 5.79236E-15-1.09327E-02-6.15243E-08-2.75419E-08 2.27859E-03
 -1        19 4.60366E-05 5.63248E-15-1.56844E-04 1.00125E-08-6.02839E-08 2.96336E-03
 -1        20 2.41800E-03 5.79236E-15-1.09327E-02-6.15242E-08-2.75419E-08 2.27843E-03
 -1        21 2.00341E-05 9.94799E-16-2.13057E-05-2.99405E-08-3.70501E-08 2.42588E-03
 -1        22 1.18608E-03 3.16272E-14-5.13452E-03-1.33457E-07-2.85751E-08 1.87103E-03
 -1        23 1.90841E-05 9.94799E-16-2.09066E-05-2.99405E-08-3.70501E-08 2.42589E-03
 -1        24 1.18484E-03 3.16272E-14-5.13423E-03-1.33457E-07-2.85751E-08 1.87106E-03
 -1        25-2.49810E-05-1.13708E-15 1.15975E-04 2.78796E-08 6.15812E-09 2.00146E-03
 -1        26 1.55331E-04 5.46633E-15-3.74267E-04-6.80763E-08 1.97425E-08 1.53628E-03
 -1        27-2.57596E-05-1.13708E-15 1.16331E-04 2.78796E-08 6.15813E-09 2.00177E-03
 -1        28 1.54180E-04 5.46633E-15-3.73762E-04-6.80762E-08 1.97424E-08 1.53666E-03
 -1        29-8.98021E-05 1.06024E-15 2.76694E-04 2.80818E-08 2.20236E-08 1.66727E-03
 -1        30-7.27321E-04 5.87376E-15 3.62518E-03-3.28227E-08 5.54970E-08 1.27148E-03
 -1        31-9.03477E-05 1.06024E-15 2.76889E-04 2.80818E-08 2.20236E-08 1.66738E-03
 -1        32-7.28052E-04 5.87376E-15 3.62527E-03-3.28226E-08 5.54970E-08 1.27163E-03
 -1        33-1.92794E-04 1.57773E-15 4.73944E-04-1.02504E-08 3.84978E-08 1.31173E-03
 -1        34-1.50834E-03 1.40943E-14 6.95968E-03-8.26934E-08 3.63684E-08 9.88640E-04
 -1        35-1.93518E-04 1.57773E-15 4.74122E-04-1.02503E-08 3.84978E-08 1.31166E-03
 -1        36-1.50921E-03 1.40943E-14 6.95949E-03-8.26933E-08 3.63684E-08 9.88528E-04
 -1        37-2.98149E-04 4.17796E-15 6.79662E-04 1.16449E-08 5.16009E-08 9.10713E-04
 -1        38-2.12239E-03 7.33081E-15 9.52237E-03-6.48628E-08 2.40867E-08 6.78175E-04
 -1        39-2.98749E-04 4.17796E-15 6.79588E-04 1.16449E-08 5.16009E-08 9.10635E-04
 -1        40-2.12331E-03 7.33081E-15 9.52225E-03-6.48628E-08 2.40867E-08 6.78061E-04
 -1        41-3.81728E-04 2.79804E-16 8.60361E-04 2.28395E-10 2.61439E-08 5.19186E-04
 -1        42-2.52941E-03 7.41564E-15 1.12221E-02-6.41048E-08 1.78050E-08 3.81804E-04
 -1        43-3.82165E-04 2.79804E-16 8.60013E-04 2.28398E-10 2.61439E-08 5.19194E-04
 -1        44-2.53019E-03 7.41564E-15 1.12219E-02-6.41048E-08 1.78050E-08 3.81776E-04
 -1        45-4.43785E-04-7.39739E-16 1.00067E-03-8.87632E-11-6.43311E-09 1.55363E-04
 -1        46-2.73896E-03 5.27276E-15 1.20573E-02-5.66814E-08-1.81959E-09 1.09886E-04
 -1        47-4.44179E-04-7.39739E-16 1.00038E-03-8.87640E-11-6.43310E-09 1.55455E-04
 -1        48-2.73964E-03 5.27276E-15 1.20570E-02-5.66814E-08-1.81959E-09 1.09934E-04
 -1        49-4.77663E-04 3.18758E-16 1.08020E-03 8.89249E-09-2.21688E-08-1.70015E-04
 -1        50-2.75504E-03 5.03874E-15 1.20781E-02-5.73161E-08-1.94957E-08-1.34645E-04
 -1        51-4.78209E-04 3.18758E-16 1.08011E-03 8.89248E-09-2.21688E-08-1.69941E-04
 -1        52-2.75583E-03 5.03874E-15 1.20775E-02-5.73160E-08-1.94956E-08-1.34650E-04
 -1        53-4.64172E-04-6.56581E-16 1.08578E-03 2.28927E-08-2.17484E-08-3.97504E-04
 -1        54-2.59989E-03 2.08285E-14 1.14639E-02-6.50864E-08-9.59391E-08-3.06423E-04
 -1        55-4.65024E-04-6.56581E-16 1.08588E-03 2.28927E-08-2.17484E-08-3.97601E-04
 -1        56-2.60094E-03 2.08285E-14 1.14638E-02-6.50863E-08-9.59391E-08-3.06827E-04
 -1        57-4.16739E-04 2.61149E-15 1.04329E-03 5.48074E-08-6.45951E-09-5.49730E-04
 -1        58-2.33979E-03 1.70550E-15 1.04162E-02-4.46761E-08-3.76611E-08-4.18254E-04
 -1        59-4.17158E-04 2.61149E-15 1.04333E-03 5.48074E-08-6.45952E-09-5.49807E-04
 -1        60-2.34098E-03 1.70550E-15 1.04169E-02-4.46760E-08-3.76611E-08-4.18524E-04
 -1        61-3.90306E-04-2.10536E-15 9.72580E-04-2.77224E-08-1.49590E-08-7.32370E-04
 -1        62-2.01661E-03 1.50900E-14 8.93990E-03-9.32957E-08 2.69185E-08-5.51194E-04
 -1        63-3.90974E-04-2.10536E-15 9.72387E-04-2.77224E-08-1.49590E-08-7.32040E-04
 -1        64-2.01739E-03 1.50900E-14 8.93989E-03-9.32956E-08 2.69185E-08-5.50960E-04
 -1        65-3.24851E-04 4.34499E-15 8.63582E-04 5.34826E-08-3.88315E-08-9.22672E-04
 -1        66-1.56229E-03 1.76670E-15 7.00004E-03-5.13060E-08-3.74245E-08-6.84078E-04
 -1        67-3.25556E-04 4.34499E-15 8.63909E-04 5.34826E-08-3.88315E-08-9.22694E-04
 -1        68-1.56355E-03 1.76670E-15 7.00025E-03-5.13059E-08-3.74245E-08-6.84013E-04
 -1        69-2.25566E-04 2.69287E-16 7.23304E-04 8.36394E-09 3.91947E-08-9.38286E-04
 -1        70-9.87580E-04 1.02456E-14 4.80406E-03-7.42633E-08 6.32447E-08-7.04937E-04
 -1        71-2.26291E-04 2.69287E-16 7.23768E-04 8.36394E-09 3.91947E-08-9.38055E-04
 -1        72-9.88572E-04 1.02456E-14 4.80360E-03-7.42633E-08 6.32447E-08-7.04750E-04
 -1        73-1.57249E-04 5.00889E-15 5.68467E-04 6.34112E-08 3.81163E-08-7.66074E-04
 -1        74-5.84897E-04 9.60562E-15 2.74871E-03-3.72264E-08-1.12890E-07-4.91313E-04
 -1        75-1.57577E-04 5.00889E-15 5.68265E-04 6.34111E-08 3.81163E-08-7.66617E-04
 -1        76-5.86104E-04 9.60562E-15 2.74861E-03-3.72262E-08-1.12890E-07-4.92068E-04
 -1        77-9.18109E-05-1.03857E-15 3.32876E-04-8.90414E-09 5.23997E-09-4.17573E-04
 -1        78 6.05381E-05 1.40407E-15 1.42665E-03-2.34556E-08 4.80716E-08-4.94672E-04
 -1        79-9.23972E-05-1.03857E-15 3.32764E-04-8.90413E-09 5.23997E-09-4.17574E-04
 -1        80 6.03635E-05 1.40407E-15 1.42744E-03-2.34556E-08 4.80716E-08-4.94536E-04
 -1        81-2.78283E-05-3.51135E-16 1.77147E-04-2.36924E-08 1.92496E-08-6.74480E-05
 -1        82-9.39878E-04 1.08066E-14 1.04449E-03-7.76941E-08 1.95215E-08-3.90827E-04
 -1        83-2.73584E-05-3.51135E-16 1.77315E-04-2.36924E-08 1.92496E-08-6.76517E-05
 -1        84-9.40526E-04 1.08066E-14 1.04415E-03-7.76941E-08 1.95216E-08-3.91152E-04
 -1        85-1.11417E-04-3.53352E-16 3.51376E-02-2.05994E-11 5.12115E-13 1.63572E-02
 -1        86-8.97852E-03 1.95539E-15 3.22244E-02 3.39246E-08-1.14991E-08 4.53708E-03
 -1        87-1.11419E-04-3.53352E-16 3.51374E-02-2.06017E-11 5.12115E-13 1.63574E-02
 -1        88-8.97825E-03 1.95539E-15 3.22243E-02 3.39246E-08-1.14991E-08 4.53700E-03
 -1        89-5.21789E-03 2.43436E-15 2.51691E-02 3.55998E-08-1.51331E-08 2.62661E-03
 -1        90-5.21787E-03 2.43436E-15 2.51691E-02 3.55998E-08-1.51331E-08 2.62645E-03
 -1        91-3.88292E-03 5.55933E-15 1.74447E-02 5.87240E-08 1.05065E-09 2.69693E-03
 -1        92-3.88314E-03 5.55933E-15 1.74446E-02 5.87240E-08 1.05065E-09 2.69659E-03
 -1        93-2.32561E-03 2.89205E-15 1.07513E-02 3.61469E-08-2.39117E-08 2.27288E-03
 -1        94-2.32592E-03 2.89205E-15 1.07512E-02 3.61469E-08-2.39117E-08 2.27256E-03
 -1        95-1.14602E-03 3.15570E-16 5.14596E-03 2.49411E-08-1.42179E-08 1.88469E-03
 -1        96-1.14667E-03 3.15570E-16 5.14595E-03 2.49411E-08-1.42179E-08 1.88463E-03
 -1        97-2.05293E-04 8.08476E-15 6.38504E-04 6.16647E-08-2.59362E-08 1.56479E-03
 -1        98-2.05699E-04 8.08476E-15 6.38484E-04 6.16647E-08-2.59362E-08 1.56508E-03
 -1        99 5.47717E-04 5.96338E-15-3.03312E-03 5.81510E-08-1.75911E-08 1.31509E-03
 -1       100 5.47357E-04 5.96338E-15-3.03272E-03 5.81510E-08-1.75911E-08 1.31526E-03
 -1       101 1.12275E-03 4.84732E-15-5.98101E-03 3.79578E-08 4.09295E-08 1.04151E-03
 -1       102 1.12217E-03 4.84732E-15-5.98054E-03 3.79578E-08 4.09295E-08 1.04142E-03
 -1       103 1.52609E-03 8.69110E-15-8.13936E-03 3.50774E-08 5.91799E-08 7.27243E-04
 -1       104 1.52581E-03 8.69110E-15-8.13958E-03 3.50773E-08 5.91799E-08 7.27106E-04
 -1       105 1.76596E-03-7.69282E-16-9.46952E-03 8.73232E-09 2.87251E-09 4.21127E-04
 -1       106 1.76586E-03-7.69282E-16-9.47002E-03 8.73232E-09 2.87250E-09 4.21186E-04
 -1       107 1.85139E-03 9.50451E-16-1.00249E-02 9.07092E-09-2.34494E-08 1.36045E-04
 -1       108 1.85128E-03 9.50451E-16-1.00251E-02 9.07092E-09-2.34494E-08 1.36224E-04
 -1       109 1.79971E-03 2.52214E-15-9.90029E-03 3.38349E-08-2.01661E-08-1.25642E-04
 -1       110 1.79941E-03 2.52214E-15-9.90024E-03 3.38348E-08-2.01661E-08-1.25447E-04
 -1       111 1.67155E-03 1.06034E-14-9.26263E-03 7.70843E-08-1.60808E-08-3.11550E-04
 -1       112 1.67090E-03 1.06034E-14-9.26287E-03 7.70843E-08-1.60808E-08-3.11606E-04
 -1       113 1.50631E-03 7.21427E-15-8.28157E-03 2.54796E-08-6.14109E-08-4.26524E-04
 -1       114 1.50667E-03 7.21427E-15-8.28197E-03 2.54796E-08-6.14109E-08-4.26368E-04
 -1       115 1.23599E-03 1.12209E-14-6.96733E-03 1.79965E-08-8.36760E-08-5.70712E-04
 -1       116 1.23545E-03 1.12209E-14-6.96692E-03 1.79965E-08-8.36760E-08-5.70174E-04
 -1       117 9.12591E-04 6.92459E-15-5.24480E-03 6.63171E-08 6.13866E-09-7.29204E-04
 -1       118 9.12438E-04 6.92459E-15-5.24432E-03 6.63171E-08 6.13867E-09-7.29385E-04
 -1       119 5.36449E-04 3.05873E-15-3.28119E-03 4.66483E-08-4.01355E-09-7.66742E-04
 -1       120 5.35989E-04 3.05873E-15-3.28092E-03 4.66483E-08-4.01357E-09-7.66631E-04
 -1       121 2.70398E-04 3.38973E-15-1.56005E-03 1.74488E-08 5.11040E-08-5.83584E-04
 -1       122 2.70950E-04 3.38973E-15-1.56026E-03 1.74489E-08 5.11040E-08-5.83580E-04
 -1       123-2.44160E-04 8.50700E-16-4.30969E-04 7.42585E-08-3.89416E-08-5.82712E-04
 -1       124-2.45158E-04 8.50700E-16-4.30928E-04 7.42585E-08-3.89417E-08-5.82967E-04
 -1       125 8.84221E-04 3.11663E-14-2.98163E-05-1.56063E-07 5.79165E-08-8.08356E-04
 -1       126 8.85809E-04 3.11663E-14-2.86534E-05-1.56063E-07 5.79169E-08-8.09971E-04
 -3
    1PSTEP                        72          18           3          
  100CL  118 3.80000E-01         126                     1   18           1
 -4  ERROR       1    1
 -5  STR(%)      1    1    0    0
 -1         1 6.09264E+01
 -1         2 6.63722E+01
 -1         3 6.63722E+01
 -1         4 6.09264E+01
 -1         5 6.09264E+01
 -1         6 6.63722E+01
 -1         7 6.63722E+01
 -1         8 6.09264E+01
 -1         9 6.42742E+01
 -1        10 5.98948E+01
 -1        11 6.42742E+01
 -1        12 5.98948E+01
 -1        13 6.36985E+01
 -1        14 5.98948E+01
 -1        15 6.36985E+01
 -1        16 5.98948E+01
 -1        17 6.10276E+01
 -1        18 5.81716E+01
 -1        19 6.10276E+01
 -1        20 5.81716E+01
 -1        21 5.47083E+01
 -1        22 5.29635E+01
 -1        23 5.47083E+01
 -1        24 5.29635E+01
 -1        25 2.94308E+01
 -1        26 2.85885E+01
 -1        27 2.94308E+01
 -1        28 2.85885E+01
 -1        29 5.96778E+01
 -1        30 5.09013E+01
 -1        31 5.96778E+01
 -1        32 5.09013E+01
 -1        33 6.78402E+01
 -1        34 5.59537E+01
 -1        35 6.78402E+01
 -1        36 5.59537E+01
 -1        37 6.79835E+01
 -1        38 5.59537E+01
 -1        39 6.79835E+01
 -1        40 5.59537E+01
 -1        41 6.79835E+01
 -1        42 5.56193E+01
 -1        43 6.79835E+01
 -1        44 5.56193E+01
 -1        45 6.70077E+01
 -1        46 5.44444E+01
 -1        47 6.70077E+01
 -1        48 5.44444E+01
 -1        49 6.83007E+01
 -1        50 5.35423E+01
 -1        51 6.83007E+01
 -1        52 5.35423E+01
 -1        53 6.98877E+01
 -1        54 5.35423E+01
 -1        55 6.98877E+01
 -1        56 5.35423E+01
 -1        57 7.15916E+01
 -1        58 5.34562E+01
 -1        59 7.15916E+01
 -1        60 5.34562E+01
 -1        61 7.38921E+01
 -1        62 5.32189E+01
 -1        63 7.38921E+01
 -1        64 5.32189E+01
 -1        65 7.38921E+01
 -1        66 5.24298E+01
 -1        67 7.38921E+01
 -1        68 5.24298E+01
 -1        69 7.33607E+01
 -1        70 4.95014E+01
 -1        71 7.33607E+01
 -1        72 4.95014E+01
 -1        73 9.86965E+01
 -1        74 4.44691E+01
 -1        75 9.86965E+01
 -1        76 4.44691E+01
 -1        77 9.86965E+01
 -1        78 7.23322E+01
 -1        79 9.86965E+01
 -1        80 7.23322E+01
 -1        81 7.23322E+01
 -1        82 7.23322E+01
 -1        83 7.23322E+01
 -1        84 7.23322E+01
 -1        85 6.63722E+01
 -1        86 6.63722E+01
 -1        87 6.63722E+01
 -1        88 6.63722E+01
 -1        89 6.42742E+01
 -1        90 6.42742E+01
 -1        91 6.36985E+01
 -1        92 6.36985E+01
 -1        93 6.10276E+01
 -1        94 6.10276E+01
 -1        95 5.47083E+01
 -1        96 5.47083E+01
 -1        97 2.94308E+01
 -1        98 2.94308E+01
 -1        99 5.96778E+01
 -1       100 5.96778E+01
 -1       101 6.78402E+01
 -1       102 6.78402E+01
 -1       103 6.79835E+01
 -1       104 6.79835E+01
 -1       105 6.79835E+01
 -1       106 6.79835E+01
 -1       107 6.70077E+01
 -1       108 6.70077E+01
 -1       109 6.83007E+01
 -1       110 6.83007E+01
 -1       111 6.98877E+01
 -1       112 6.98877E+01
 -1       113 7.15916E+01
 -1       114 7.15916E+01
 -1       115 7.38921E+01
 -1       116 7.38921E+01
 -1       117 7.38921E+01
 -1       118 7.38921E+01
 -1       119 7.33607E+01
 -1       120 7.33607E+01
 -1       121 9.86965E+01
 -1       122 9.86965E+01
 -1       123 9.86965E+01
 -1       124 9.86965E+01
 -1       125 4.45261E+01
 -1       126 4.45261E+01
 -3
    1PSTEP                        73          19           3          
  100CL  119 3.90000E-01         126                     1   19           1
 -4  DISP        4    1
 -5  D1          1    2    1    0
 -5  D2          1    2    2    0
 -5  D3          1    2    3    0
 -5  ALL         1    2    0    0    1ALL
 -1         1 0.00000E+00 0.00000E+00 0.00000E+00
 -1         2 0.00000E+00 0.00000E+00 0.00000E+00
 -1         3 1.19870E-03 0.00000E+00-6.60441E-05
 -1         4 1.63484E-03 0.00000E+00-1.93652E-03
 -1         5 0.00000E+00 0.00000E+00 0.00000E+00
 -1         6 0.00000E+00 0.00000E+00 0.00000E+00
 -1         7 1.19866E-03 0.00000E+00-6.60430E-05
 -1         8 1.63486E-03 0.00000E+00-1.93657E-03
 -1         9 4.36984E-03 0.00000E+00-2.00506E-04
 -1        10 4.52427E-03 0.00000E+00-3.61135E-03
 -1        11 4.36983E-03 0.00000E+00-2.00524E-04
 -1        12 4.52433E-03 0.00000E+00-3.61142E-03
 -1        13 8.76651E-03 0.00000E+00-4.19153E-04
 -1        14 8.77069E-03 0.00000E+00-4.92567E-03
 -1        15 8.76652E-03 0.00000E+00-4.19171E-04
 -1        16 8.77076E-03 0.00000E+00-4.92572E-03
 -1        17 1.40347E-02 0.00000E+00-7.14147E-04
 -1        18 1.38881E-02 0.00000E+00-5.93393E-03
 -1        19 1.40347E-02 0.00000E+00-7.14150E-04
 -1        20 1.38882E-02 0.00000E+00-5.93395E-03
 -1        21 1.97916E-02 0.00000E+00-1.05595E-03
 -1        22 1.95376E-02 0.00000E+00-6.65762E-03
 -1        23 1.97916E-02 0.00000E+00-1.05596E-03
 -1        24 1.95377E-02 0.00000E+00-6.65763E-03
 -1        25 2.57354E-02 0.00000E+00-1.41162E-03
 -1        26 2.54124E-02 0.00000E+00-7.12656E-03
 -1        27 2.57354E-02 0.00000E+00-1.41164E-03
 -1        28 2.54125E-02 0.00000E+00-7.12658E-03
 -1        29 3.16284E-02 0.00000E+00-1.75045E-03
 -1        30 3.12713E-02 0.00000E+00-7.37156E-03
 -1        31 3.16285E-02 0.00000E+00-1.75045E-03
 -1        32 3.12714E-02 0.00000E+00-7.37158E-03
 -1        33 3.73018E-02 0.00000E+00-2.05271E-03
 -1        34 3.69378E-02 0.00000E+00-7.42320E-03
 -1        35 3.73018E-02 0.00000E+00-2.05270E-03
 -1        36 3.69379E-02 0.00000E+00-7.42319E-03
 -1        37 4.26296E-02 0.00000E+00-2.30625E-03
 -1        38 4.22765E-02 0.00000E+00-7.30561E-03
 -1        39 4.26296E-02 0.00000E+00-2.30625E-03
 -1        40 4.22766E-02 0.00000E+00-7.30559E-03
 -1        41 4.75045E-02 0.00000E+00-2.50270E-03
 -1        42 4.71752E-02 0.00000E+00-7.04323E-03
 -1        43 4.75045E-02 0.00000E+00-2.50269E-03
 -1        44 4.71752E-02 0.00000E+00-7.04323E-03
 -1        45 5.18526E-02 0.00000E+00-2.64067E-03
 -1        46 5.15555E-02 0.00000E+00-6.66929E-03
 -1        47 5.18526E-02 0.00000E+00-2.64067E-03
 -1        48 5.15555E-02 0.00000E+00-6.66930E-03
 -1        49 5.56421E-02 0.00000E+00-2.72562E-03
 -1        50 5.53808E-02 0.00000E+00-6.21989E-03
 -1        51 5.56421E-02 0.00000E+00-2.72563E-03
 -1        52 5.53808E-02 0.00000E+00-6.21993E-03
 -1        53 5.88676E-02 0.00000E+00-2.76630E-03
 -1        54 5.86432E-02 0.00000E+00-5.72796E-03
 -1        55 5.88676E-02 0.00000E+00-2.76632E-03
 -1        56 5.86433E-02 0.00000E+00-5.72795E-03
 -1        57 6.15368E-02 0.00000E+00-2.77206E-03
 -1        58 6.13494E-02 0.00000E+00-5.23137E-03
 -1        59 6.15368E-02 0.00000E+00-2.77209E-03
 -1        60 6.13495E-02 0.00000E+00-5.23134E-03
 -1        61 6.36951E-02 0.00000E+00-2.75405E-03
 -1        62 6.35457E-02 0.00000E+00-4.77217E-03
 -1        63 6.36951E-02 0.00000E+00-2.75407E-03
 -1        64 6.35458E-02 0.00000E+00-4.77219E-03
 -1        65 6.54235E-02 0.00000E+00-2.72279E-03
 -1        66 6.53115E-02 0.00000E+00-4.38594E-03
 -1        67 6.54235E-02 0.00000E+00-2.72277E-03
 -1        68 6.53116E-02 0.00000E+00-4.38593E-03
 -1        69 6.68378E-02 0.00000E+00-2.68704E-03
 -1        70 6.67594E-02 0.00000E+00-4.09963E-03
 -1        71 6.68378E-02 0.00000E+00-2.68704E-03
 -1        72 6.67595E-02 0.00000E+00-4.09968E-03
 -1        73 6.80672E-02 0.00000E+00-2.65623E-03
 -1        74 6.80143E-02 0.00000E+00-3.91655E-03
 -1        75 6.80672E-02 0.00000E+00-2.65624E-03
 -1        76 6.80143E-02 0.00000E+00-3.91650E-03
 -1        77 6.92132E-02 0.00000E+00-2.63542E-03
 -1        78 6.91973E-02 0.00000E+00-3.82918E-03
 -1        79 6.92131E-02 0.00000E+00-2.63542E-03
 -1        80 6.91973E-02 0.00000E+00-3.82918E-03
 -1        81 7.03706E-02 0.00000E+00-2.63627E-03
 -1        82 7.03093E-02 0.00000E+00-3.78606E-03
 -1        83 7.03706E-02 0.00000E+00-2.63627E-03
 -1        84 7.03094E-02 0.00000E+00-3.78608E-03
 -1        85 0.00000E+00 0.00000E+00 0.00000E+00
 -1        86 1.69402E-03 0.00000E+00 1.75927E-03
 -1        87 0.00000E+00 0.00000E+00 0.00000E+00
 -1        88 1.69398E-03 0.00000E+00 1.75925E-03
 -1        89 4.75071E-03 0.00000E+00 3.15980E-03
 -1        90 4.75067E-03 0.00000E+00 3.15977E-03
 -1        91 9.16554E-03 0.00000E+00 4.04094E-03
 -1        92 9.16551E-03 0.00000E+00 4.04091E-03
 -1        93 1.44246E-02 0.00000E+00 4.47573E-03
 -1        94 1.44245E-02 0.00000E+00 4.47570E-03
 -1        95 2.01618E-02 0.00000E+00 4.53340E-03
 -1        96 2.01617E-02 0.00000E+00 4.53340E-03
 -1        97 2.60724E-02 0.00000E+00 4.30637E-03
 -1        98 2.60723E-02 0.00000E+00 4.30639E-03
 -1        99 3.19214E-02 0.00000E+00 3.88351E-03
 -1       100 3.19214E-02 0.00000E+00 3.88353E-03
 -1       101 3.75422E-02 0.00000E+00 3.33680E-03
 -1       102 3.75422E-02 0.00000E+00 3.33681E-03
 -1       103 4.28136E-02 0.00000E+00 2.71608E-03
 -1       104 4.28135E-02 0.00000E+00 2.71608E-03
 -1       105 4.76337E-02 0.00000E+00 2.06154E-03
 -1       106 4.76336E-02 0.00000E+00 2.06156E-03
 -1       107 5.19332E-02 0.00000E+00 1.40934E-03
 -1       108 5.19331E-02 0.00000E+00 1.40937E-03
 -1       109 5.56820E-02 0.00000E+00 7.86119E-04
 -1       110 5.56820E-02 0.00000E+00 7.86151E-04
 -1       111 5.88767E-02 0.00000E+00 2.09120E-04
 -1       112 5.88767E-02 0.00000E+00 2.09122E-04
 -1       113 6.15285E-02 0.00000E+00-3.03649E-04
 -1       114 6.15285E-02 0.00000E+00-3.03657E-04
 -1       115 6.36807E-02 0.00000E+00-7.32290E-04
 -1       116 6.36807E-02 0.00000E+00-7.32248E-04
 -1       117 6.54137E-02 0.00000E+00-1.05885E-03
 -1       118 6.54136E-02 0.00000E+00-1.05882E-03
 -1       119 6.68409E-02 0.00000E+00-1.27498E-03
 -1       120 6.68409E-02 0.00000E+00-1.27493E-03
 -1       121 6.80773E-02 0.00000E+00-1.39369E-03
 -1       122 6.80773E-02 0.00000E+00-1.39370E-03
 -1       123 6.92438E-02 0.00000E+00-1.44144E-03
 -1       124 6.92437E-02 0.00000E+00-1.44139E-03
 -1       125 7.03418E-02 0.00000E+00-1.45431E-03
 -1       126 7.03418E-02 0.00000E+00-1.45431E-03
 -3
    1PSTEP                        74          19           3          
  100CL  119 3.90000E-01         126                     1   19           1
 -4  STRESS      6    1
 -5  SXX         1    4    1    1
 -5  SYY         1    4    2    2
 -5  SZZ         1    4    3    3
 -5  SXY         1    4    1    2
 -5  SYZ         1    4    2    3
 -5  SZX         1    4    3    1
 -1         1-8.72106E+03-8.98774E+03-1.96587E+04-1.88990E-04 1.04829E-04 4.42720E+03
 -1         2-1.14739E+02-2.38474E+02-8.37320E+02-5.32552E-08-1.18298E-04 3.66951E+03
 -1         3 9.21015E+01-1.86067E+02-7.62476E+02-1.89962E-02 3.32599E-04 1.01385E+03
 -1         4-2.85359E+03-5.90040E+03-1.59056E+04 1.22965E-02-2.03277E-02 8.79586E+02
 -1         5-8.72126E+03-8.98795E+03-1.96591E+04-1.89000E-04 1.04834E-04 4.42726E+03
 -1         6-1.14751E+02-2.38473E+02-8.37321E+02-4.80272E-08-1.18299E-04 3.66940E+03
 -1         7 9.24165E+01-1.85961E+02-7.62423E+02-1.89962E-02 3.32602E-04 1.01379E+03
 -1         8-2.85304E+03-5.90025E+03-1.59056E+04 1.22965E-02-2.03276E-02 8.79536E+02
 -1         9 1.15470E+02-1.31519E+02-6.23396E+02-6.02869E-03-9.50849E-03 1.19469E+03
 -1        10-3.27741E+03-5.04954E+03-1.29467E+04 3.02281E-02-3.25924E-02 1.25374E+02
 -1        11 1.16004E+02-1.31314E+02-6.23241E+02-6.02871E-03-9.50849E-03 1.19469E+03
 -1        12-3.27661E+03-5.04919E+03-1.29464E+04 3.02282E-02-3.25924E-02 1.25286E+02
 -1        13 1.81513E+02-7.92692E+01-4.69603E+02 4.45423E-03-9.14197E-03 1.04386E+03
 -1        14-1.98080E+03-3.37232E+03-8.96984E+03 3.67161E-02-2.32760E-02 2.03794E+02
 -1        15 1.82089E+02-7.90016E+01-4.69284E+02 4.45424E-03-9.14198E-03 1.04384E+03
 -1        16-1.97998E+03-3.37189E+03-8.96926E+03 3.67162E-02-2.32760E-02 2.03712E+02
 -1        17 1.93833E+02-4.45760E+01-3.48420E+02-4.49659E-03-1.55093E-03 9.20924E+02
 -1        18-1.17073E+03-2.05969E+03-5.57874E+03 3.53089E-02-8.73841E-03 2.62112E+02
 -1        19 1.94499E+02-4.42780E+01-3.48092E+02-4.49661E-03-1.55093E-03 9.20854E+02
 -1        20-1.16980E+03-2.05924E+03-5.57817E+03 3.53090E-02-8.73845E-03 2.62036E+02
 -1        21 1.81781E+02-1.49493E+01-2.29031E+02-1.84136E-02-3.53756E-03 7.65026E+02
 -1        22-4.42600E+02-9.28618E+02-2.62133E+03 3.14363E-02-4.64263E-03 3.67971E+02
 -1        23 1.82556E+02-1.46321E+01-2.28747E+02-1.84137E-02-3.53756E-03 7.65020E+02
 -1        24-4.41568E+02-9.28187E+02-2.62093E+03 3.14365E-02-4.64264E-03 3.67945E+02
 -1        25 1.43867E+02 9.86987E+00-1.07044E+02 1.51832E-03-6.90974E-03 6.10946E+02
 -1        26 1.05941E+02-3.20924E+01-2.05900E+02 3.99488E-02-1.38716E-02 4.51876E+02
 -1        27 1.44486E+02 1.01574E+01-1.06703E+02 1.51833E-03-6.90975E-03 6.10953E+02
 -1        28 1.06752E+02-3.17466E+01-2.05558E+02 3.99489E-02-1.38716E-02 4.51839E+02
 -1        29 1.03029E+02 3.57561E+01 1.78229E+01 9.09093E-03 3.19543E-03 4.77182E+02
 -1        30 5.19449E+02 6.63436E+02 1.70736E+03 4.17625E-02-7.02923E-03 5.08637E+02
 -1        31 1.03599E+02 3.60348E+01 1.81802E+01 9.09095E-03 3.19543E-03 4.77116E+02
 -1        32 5.20230E+02 6.63825E+02 1.70789E+03 4.17626E-02-7.02926E-03 5.08575E+02
 -1        33 7.63320E+01 6.37991E+01 1.34429E+02-5.30697E-04 4.54055E-03 3.76006E+02
 -1        34 8.36633E+02 1.20165E+03 3.20763E+03 4.43367E-02 5.62191E-03 5.42478E+02
 -1        35 7.70575E+01 6.40984E+01 1.34699E+02-5.30703E-04 4.54055E-03 3.75901E+02
 -1        36 8.37620E+02 1.20212E+03 3.20820E+03 4.43369E-02 5.62189E-03 5.42412E+02
 -1        37 5.10586E+01 8.99329E+01 2.43464E+02-2.00225E-02-1.37743E-03 2.88923E+02
 -1        38 1.06208E+03 1.60871E+03 4.36713E+03 2.52710E-02 1.03303E-02 5.41859E+02
 -1        39 5.17109E+01 9.02015E+01 2.43705E+02-2.00226E-02-1.37742E-03 2.88879E+02
 -1        40 1.06297E+03 1.60907E+03 4.36746E+03 2.52711E-02 1.03303E-02 5.41828E+02
 -1        41 2.57189E+01 1.14605E+02 3.48386E+02-2.19299E-02 1.24091E-03 1.96511E+02
 -1        42 1.20278E+03 1.89072E+03 5.19141E+03 2.03940E-02 1.83223E-03 4.94068E+02
 -1        43 2.63240E+01 1.14873E+02 3.48671E+02-2.19300E-02 1.24091E-03 1.96511E+02
 -1        44 1.20359E+03 1.89102E+03 5.19159E+03 2.03941E-02 1.83223E-03 4.94081E+02
 -1        45 6.20282E+00 1.36261E+02 4.38308E+02-6.47257E-03 5.29555E-04 1.07354E+02
 -1        46 1.27221E+03 2.05163E+03 5.67455E+03 3.72831E-02-7.88871E-03 4.12239E+02
 -1        47 6.83098E+00 1.36518E+02 4.38536E+02-6.47259E-03 5.29557E-04 1.07309E+02
 -1        48 1.27304E+03 2.05193E+03 5.67473E+03 3.72832E-02-7.88871E-03 4.12210E+02
 -1        49-3.74717E+00 1.53289E+02 5.04546E+02-3.58096E-03-6.01368E-03 3.04807E+01
 -1        50 1.28408E+03 2.10716E+03 5.85397E+03 3.53987E-02-1.97213E-02 3.16745E+02
 -1        51-3.20488E+00 1.53502E+02 5.04709E+02-3.58096E-03-6.01368E-03 3.04345E+01
 -1        52 1.28496E+03 2.10758E+03 5.85447E+03 3.53989E-02-1.97213E-02 3.16704E+02
 -1        53-6.83440E+00 1.65156E+02 5.48381E+02 1.86023E-02-1.00883E-02-4.99038E+01
 -1        54 1.23845E+03 2.06029E+03 5.73919E+03 5.48239E-02 4.78462E-03 2.05146E+02
 -1        55-6.21013E+00 1.65404E+02 5.48586E+02 1.86024E-02-1.00883E-02-4.99325E+01
 -1        56 1.23936E+03 2.06078E+03 5.73991E+03 5.48241E-02 4.78465E-03 2.05223E+02
 -1        57-1.56549E+01 1.66883E+02 5.64996E+02-1.25553E-02-1.30805E-02-1.41051E+02
 -1        58 1.12232E+03 1.89691E+03 5.29504E+03 3.28557E-02 1.96921E-02 7.75150E+01
 -1        59-1.52002E+01 1.67069E+02 5.65155E+02-1.25554E-02-1.30805E-02-1.41080E+02
 -1        60 1.12316E+03 1.89723E+03 5.29525E+03 3.28558E-02 1.96921E-02 7.76004E+01
 -1        61-9.09646E+00 1.66705E+02 5.60486E+02-1.16274E-02-1.32990E-02-2.25351E+02
 -1        62 9.58588E+02 1.63040E+03 4.54666E+03 2.30298E-02-9.87484E-03-4.38359E+01
 -1        63-8.61379E+00 1.66964E+02 5.60869E+02-1.16274E-02-1.32990E-02-2.25446E+02
 -1        64 9.59244E+02 1.63064E+03 4.54683E+03 2.30298E-02-9.87485E-03-4.38559E+01
 -1        65 3.44972E+00 1.61634E+02 5.33424E+02-1.15190E-02 5.88255E-03-2.76061E+02
 -1        66 7.54731E+02 1.28165E+03 3.56191E+03 2.29738E-02 6.48872E-03-1.29282E+02
 -1        67 3.85914E+00 1.61842E+02 5.33707E+02-1.15190E-02 5.88256E-03-2.76062E+02
 -1        68 7.55386E+02 1.28189E+03 3.56206E+03 2.29739E-02 6.48872E-03-1.29263E+02
 -1        69-2.88149E+00 1.38590E+02 4.64463E+02-2.26230E-03-1.17717E-03-2.72621E+02
 -1        70 5.29066E+02 8.97518E+02 2.48519E+03 3.03972E-02-2.43738E-02-1.62880E+02
 -1        71-2.59360E+00 1.38681E+02 4.64476E+02-2.26230E-03-1.17716E-03-2.72761E+02
 -1        72 5.29844E+02 8.97905E+02 2.48570E+03 3.03973E-02-2.43738E-02-1.63019E+02
 -1        73 5.86523E+00 1.12317E+02 3.68886E+02-1.07386E-02-8.37045E-03-2.22801E+02
 -1        74 2.87780E+02 5.21588E+02 1.45916E+03 2.48791E-02 2.63511E-02-1.13495E+02
 -1        75 6.18252E+00 1.12462E+02 3.69050E+02-1.07386E-02-8.37046E-03-2.22770E+02
 -1        76 2.88622E+02 5.22007E+02 1.45971E+03 2.48792E-02 2.63511E-02-1.13359E+02
 -1        77 4.60325E+00 6.58760E+01 2.15049E+02-1.84087E-02 2.83864E-03-1.27479E+02
 -1        78 3.37900E+02 3.54252E+02 8.45751E+02 7.73027E-03 3.45681E-04-1.36830E+02
 -1        79 4.94403E+00 6.60533E+01 2.15300E+02-1.84087E-02 2.83865E-03-1.27483E+02
 -1        80 3.38275E+02 3.54315E+02 8.45587E+02 7.73029E-03 3.45677E-04-1.36894E+02
 -1        81 2.88128E+01 4.56653E+01 1.24033E+02 1.19931E-02 3.25443E-03-2.50888E+01
 -1        82-2.65165E+02 3.47886E+01 3.82291E+02 1.05614E-02-1.16654E-02-1.08791E+02
 -1        83 2.87957E+01 4.56610E+01 1.24036E+02 1.19931E-02 3.25444E-03-2.49401E+01
 -1        84-2.65298E+02 3.46715E+01 3.82033E+02 1.05614E-02-1.16654E-02-1.08865E+02
 -1        85 8.41797E+03 8.10830E+03 1.99904E+04-1.35627E-04-1.21269E-04 5.80821E+03
 -1        86 2.81071E+03 5.44122E+03 1.61190E+04-2.01847E-02-1.05805E-02 2.04629E+03
 -1        87 8.41786E+03 8.10821E+03 1.99901E+04-1.35626E-04-1.21268E-04 5.80806E+03
 -1        88 2.81066E+03 5.44116E+03 1.61189E+04-2.01847E-02-1.05805E-02 2.04628E+03
 -1        89 3.23986E+03 4.66604E+03 1.28479E+04-2.23777E-02-1.45456E-02 1.54447E+03
 -1        90 3.24016E+03 4.66614E+03 1.28479E+04-2.23777E-02-1.45456E-02 1.54451E+03
 -1        91 2.20313E+03 3.18402E+03 8.67079E+03-1.48460E-02-1.91353E-02 1.49755E+03
 -1        92 2.20351E+03 3.18417E+03 8.67093E+03-1.48461E-02-1.91353E-02 1.49758E+03
 -1        93 1.45215E+03 1.97048E+03 5.22152E+03-2.87531E-02-1.41978E-02 1.17319E+03
 -1        94 1.45266E+03 1.97073E+03 5.22184E+03-2.87531E-02-1.41978E-02 1.17317E+03
 -1        95 7.31892E+02 9.10544E+02 2.33262E+03-4.42393E-02-5.19115E-03 8.24931E+02
 -1        96 7.32538E+02 9.10870E+02 2.33307E+03-4.42395E-02-5.19117E-03 8.24981E+02
 -1        97 1.21932E+02 5.93831E+01 8.25007E+01-1.21224E-02 6.42900E-03 5.00022E+02
 -1        98 1.22340E+02 5.96017E+01 8.28226E+01-1.21224E-02 6.42900E-03 5.00049E+02
 -1        99-3.65338E+02-5.93223E+02-1.60073E+03-7.44289E-03 9.17233E-03 2.40862E+02
 -1       100-3.65021E+02-5.93091E+02-1.60061E+03-7.44291E-03 9.17233E-03 2.40760E+02
 -1       101-7.27520E+02-1.07956E+03-2.84370E+03-3.04876E-02 3.15848E-03 5.81449E+01
 -1       102-7.26989E+02-1.07936E+03-2.84358E+03-3.04877E-02 3.15850E-03 5.80292E+01
 -1       103-9.98287E+02-1.43924E+03-3.75338E+03-4.16646E-02-3.33409E-03-6.80835E+01
 -1       104-9.97805E+02-1.43901E+03-3.75311E+03-4.16647E-02-3.33409E-03-6.80971E+01
 -1       105-1.18794E+03-1.67929E+03-4.34893E+03-3.54799E-02 1.05207E-02-1.58723E+02
 -1       106-1.18752E+03-1.67904E+03-4.34855E+03-3.54800E-02 1.05207E-02-1.58726E+02
 -1       107-1.29425E+03-1.80198E+03-4.64375E+03-2.35530E-02 1.97335E-02-2.14755E+02
 -1       108-1.29383E+03-1.80178E+03-4.64349E+03-2.35531E-02 1.97335E-02-2.14827E+02
 -1       109-1.32002E+03-1.82259E+03-4.68594E+03-1.84224E-02 1.63683E-02-2.39659E+02
 -1       110-1.31977E+03-1.82252E+03-4.68596E+03-1.84225E-02 1.63683E-02-2.39757E+02
 -1       111-1.27440E+03-1.75020E+03-4.49580E+03-8.02248E-03 8.61120E-04-2.54044E+02
 -1       112-1.27392E+03-1.75004E+03-4.49576E+03-8.02250E-03 8.61125E-04-2.54110E+02
 -1       113-1.17328E+03-1.58459E+03-4.05670E+03-1.44223E-02-3.96997E-03-2.72590E+02
 -1       114-1.17315E+03-1.58448E+03-4.05646E+03-1.44223E-02-3.96997E-03-2.72660E+02
 -1       115-9.87829E+02-1.31248E+03-3.35143E+03-1.45294E-02 2.14506E-02-2.88496E+02
 -1       116-9.87664E+02-1.31235E+03-3.35117E+03-1.45294E-02 2.14507E-02-2.88689E+02
 -1       117-7.47081E+02-9.63519E+02-2.44549E+03-1.06579E-02 1.54005E-02-2.83942E+02
 -1       118-7.47092E+02-9.63523E+02-2.44549E+03-1.06579E-02 1.54005E-02-2.83964E+02
 -1       119-5.22454E+02-6.13310E+02-1.51428E+03-2.61740E-03 2.15449E-02-2.59390E+02
 -1       120-5.22514E+02-6.13376E+02-1.51444E+03-2.61742E-03 2.15449E-02-2.59508E+02
 -1       121-2.63845E+02-2.90661E+02-7.03283E+02-4.35915E-03-1.19126E-03-1.92919E+02
 -1       122-2.63971E+02-2.90709E+02-7.03314E+02-4.35914E-03-1.19126E-03-1.93010E+02
 -1       123-2.65158E+02-1.56119E+02-2.54555E+02-1.90302E-02 2.38422E-02-1.89615E+02
 -1       124-2.65132E+02-1.56103E+02-2.54528E+02-1.90302E-02 2.38422E-02-1.89686E+02
 -1       125 4.45359E+02 1.93381E+02 2.00526E+02 1.40872E-02-2.71002E-04-2.61807E+02
 -1       126 4.45113E+02 1.93152E+02 2.00006E+02 1.40872E-02-2.70989E-04-2.61590E+02
 -3
    1PSTEP                        75          19           3          
  100CL  119 3.90000E-01         126                     1   19           1
 -4  TOSTRAIN    6    1
 -5  EXX         1    4    1    1
 -5  EYY         1    4    2    2
 -5  EZZ         1    4    3    3
 -5  EXY         1    4    1    2
 -5  EYZ         1    4    2    3
 -5  EZX         1    4    3    1
 -1         1-1.23118E-04-1.36668E-15-3.75680E-02-5.04062E-10 4.56108E-13 1.63481E-02
 -1         2-1.21098E-04-8.04582E-16-1.15370E-03 5.89206E-12 5.22732E-13 1.19867E-02
 -1         3 3.40849E-05 3.99235E-15-9.54206E-04-6.18974E-08-9.69364E-10 3.39417E-03
 -1         4 9.35797E-03 6.68281E-15-3.44574E-02 4.28332E-08-6.75858E-08 4.78921E-03
 -1         5-1.23126E-04-1.36668E-15-3.75688E-02-5.04081E-10 4.56108E-13 1.63483E-02
 -1         6-1.21100E-04-8.04582E-16-1.15370E-03 5.89865E-12 5.22732E-13 1.19864E-02
 -1         7 3.47301E-05 3.99235E-15-9.54385E-04-6.18974E-08-9.69366E-10 3.39401E-03
 -1         8 9.35923E-03 6.68281E-15-3.44580E-02 4.28333E-08-6.75857E-08 4.78912E-03
 -1         9-1.54102E-05-1.88125E-15-6.46247E-04-1.73696E-08-3.21714E-08 4.01700E-03
 -1        10 5.35878E-03 3.67681E-14-2.68608E-02 1.05986E-07-1.02751E-07 2.70040E-03
 -1        11-1.43605E-05-1.88125E-15-6.46403E-04-1.73696E-08-3.21714E-08 4.01707E-03
 -1        12 5.36026E-03 3.67681E-14-2.68608E-02 1.05986E-07-1.02751E-07 2.70021E-03
 -1        13 5.83522E-05-1.20070E-15-4.43555E-04 1.71664E-08-2.83253E-08 3.53076E-03
 -1        14 4.11593E-03 3.57595E-14-1.85582E-02 1.26196E-07-6.62495E-08 2.80447E-03
 -1        15 5.93610E-05-1.20070E-15-4.43401E-04 1.71664E-08-2.83253E-08 3.53076E-03
 -1        16 4.11724E-03 3.57595E-14-1.85577E-02 1.26196E-07-6.62496E-08 2.80427E-03
 -1        17 5.94190E-05-4.21616E-15-2.69563E-04-1.40561E-08-6.52130E-09 3.11272E-03
 -1        18 2.50944E-03 2.17741E-14-1.13662E-02 1.17260E-07-1.65235E-08 2.38277E-03
 -1        19 6.06498E-05-4.21616E-15-2.69501E-04-1.40561E-08-6.52130E-09 3.11261E-03
 -1        20 2.51102E-03 2.17741E-14-1.13659E-02 1.17260E-07-1.65235E-08 2.38264E-03
 -1        21 3.70608E-05 9.03949E-16-1.06341E-04-5.81400E-08-1.81265E-08 2.57314E-03
 -1        22 1.20583E-03 1.23181E-14-5.21165E-03 1.03234E-07-3.60459E-09 1.98004E-03
 -1        23 3.85256E-05 9.03949E-16-1.06431E-04-5.81401E-08-1.81265E-08 2.57329E-03
 -1        24 1.20776E-03 1.23181E-14-5.21174E-03 1.03235E-07-3.60458E-09 1.98018E-03
 -1        25-4.24723E-05-3.17440E-15 8.43698E-05 7.55270E-09-2.17513E-08 2.02590E-03
 -1        26 9.27131E-05 3.21947E-14-2.27814E-04 1.34217E-07-2.99627E-08 1.54824E-03
 -1        27-4.14176E-05-3.17440E-15 8.45613E-05 7.55271E-09-2.17513E-08 2.02602E-03
 -1        28 9.42330E-05 3.21947E-14-2.27834E-04 1.34217E-07-2.99627E-08 1.54829E-03
 -1        29-1.47054E-04-1.01683E-15 3.00052E-04 2.81725E-08 1.36151E-08 1.54152E-03
 -1        30-7.98480E-04 3.35275E-14 3.68209E-03 1.37396E-07-7.40740E-09 1.17078E-03
 -1        31-1.46064E-04-1.01683E-15 3.00270E-04 2.81726E-08 1.36151E-08 1.54139E-03
 -1        32-7.97169E-04 3.35275E-14 3.68247E-03 1.37396E-07-7.40740E-09 1.17068E-03
 -1        33-2.40076E-04-5.48119E-15 5.11500E-04-3.27404E-09 1.44510E-08 1.17222E-03
 -1        34-1.48952E-03 3.41973E-14 6.71880E-03 1.41145E-07 3.33491E-08 8.85083E-04
 -1        35-2.38630E-04-5.48119E-15 5.11351E-04-3.27404E-09 1.44510E-08 1.17205E-03
 -1        36-1.48779E-03 3.41973E-14 6.71911E-03 1.41145E-07 3.33491E-08 8.85018E-04
 -1        37-3.38458E-04 3.14659E-15 7.19574E-04-6.42128E-08-1.09430E-08 8.56560E-04
 -1        38-2.04295E-03 7.18349E-15 9.05184E-03 7.82799E-08 4.11815E-08 6.42095E-04
 -1        39-3.37187E-04 3.14659E-15 7.19467E-04-6.42129E-08-1.09429E-08 8.56554E-04
 -1        40-2.04124E-03 7.18349E-15 9.05172E-03 7.82801E-08 4.11815E-08 6.42180E-04
 -1        41-4.35630E-04 6.18155E-15 9.20671E-04-7.12778E-08-2.45056E-09 5.32150E-04
 -1        42-2.44961E-03 1.79379E-15 1.06942E-02 6.54472E-08 1.18644E-08 3.94652E-04
 -1        43-4.34530E-04 6.18155E-15 9.20730E-04-7.12779E-08-2.45058E-09 5.32244E-04
 -1        44-2.44797E-03 1.79379E-15 1.06939E-02 6.54473E-08 1.18645E-08 3.94871E-04
 -1        45-5.13616E-04-4.27495E-15 1.09070E-03-2.10195E-08-2.98743E-11 2.30985E-04
 -1        46-2.68918E-03 2.28772E-14 1.16401E-02 1.22740E-07-1.55124E-08 1.66024E-04
 -1        47-5.12390E-04-4.27495E-15 1.09059E-03-2.10196E-08-2.98833E-11 2.30946E-04
 -1        48-2.68746E-03 2.28772E-14 1.16397E-02 1.22740E-07-1.55123E-08 1.66094E-04
 -1        49-5.60849E-04-4.07024E-15 1.21128E-03-1.01593E-08-2.03459E-08-1.70307E-05
 -1        50-2.78043E-03 2.68297E-14 1.19755E-02 1.19134E-07-5.50186E-08-1.81120E-05
 -1        51-5.59754E-04-4.07024E-15 1.21110E-03-1.01593E-08-2.03459E-08-1.70925E-05
 -1        52-2.77888E-03 2.68297E-14 1.19758E-02 1.19135E-07-5.50186E-08-1.81564E-05
 -1        53-5.76761E-04 2.99005E-15 1.27952E-03 6.23852E-08-2.90783E-08-2.66890E-04
 -1        54-2.73199E-03 5.62394E-14 1.17215E-02 1.76710E-07 2.58226E-08-1.99866E-04
 -1        55-5.75542E-04 2.99005E-15 1.27938E-03 6.23852E-08-2.90783E-08-2.66900E-04
 -1        56-2.73062E-03 5.62394E-14 1.17222E-02 1.76710E-07 2.58226E-08-1.99581E-04
 -1        57-5.80857E-04-5.05491E-17 1.29326E-03-3.86515E-08-4.43824E-08-5.47096E-04
 -1        58-2.53794E-03 1.72933E-14 1.08106E-02 1.03488E-07 6.83592E-08-4.07333E-04
 -1        59-5.79959E-04-5.05491E-17 1.29317E-03-3.86516E-08-4.43824E-08-5.47139E-04
 -1        60-2.53623E-03 1.72933E-14 1.08103E-02 1.03489E-07 6.83591E-08-4.06956E-04
 -1        61-5.37239E-04 1.98463E-15 1.25198E-03-3.60425E-08-4.47378E-08-8.01963E-04
 -1        62-2.17404E-03 7.08904E-15 9.27890E-03 7.60132E-08-2.86661E-08-6.00510E-04
 -1        63-5.36483E-04 1.98463E-15 1.25235E-03-3.60425E-08-4.47378E-08-8.02251E-04
 -1        64-2.17269E-03 7.08904E-15 9.27863E-03 7.60133E-08-2.86661E-08-6.00502E-04
 -1        65-4.69831E-04 5.69214E-16 1.16584E-03-3.79928E-08 1.78265E-08-9.49437E-04
 -1        66-1.68710E-03 5.83612E-15 7.26654E-03 7.39275E-08 2.33483E-08-7.11024E-04
 -1        67-4.69171E-04 5.69214E-16 1.16608E-03-3.79928E-08 1.78265E-08-9.49428E-04
 -1        68-1.68576E-03 5.83612E-15 7.26626E-03 7.39276E-08 2.33483E-08-7.10915E-04
 -1        69-4.16883E-04-3.39983E-15 1.01548E-03-7.23194E-09-4.09386E-09-9.24970E-04
 -1        70-1.16832E-03 2.10645E-14 5.07093E-03 1.00836E-07-7.59255E-08-6.99520E-04
 -1        71-4.16216E-04-3.39983E-15 1.01520E-03-7.23194E-09-4.09386E-09-9.25396E-04
 -1        72-1.16703E-03 2.10645E-14 5.07132E-03 1.00836E-07-7.59255E-08-6.99937E-04
 -1        73-3.12072E-04-3.50285E-16 7.98260E-04-3.42333E-08-2.80312E-08-7.51216E-04
 -1        74-7.40237E-04 1.41458E-14 3.00552E-03 7.87457E-08 8.73450E-08-4.60577E-04
 -1        75-3.11516E-04-3.50285E-16 7.98331E-04-3.42333E-08-2.80312E-08-7.51100E-04
 -1        76-7.38881E-04 1.41458E-14 3.00599E-03 7.87459E-08 8.73450E-08-4.60111E-04
 -1        77-1.79378E-04 3.85793E-15 4.64680E-04-6.00238E-08 7.78362E-09-4.29556E-04
 -1        78-3.19696E-05-2.43207E-15 1.56930E-03 2.50746E-08 1.71100E-09-4.81480E-04
 -1        79-1.78846E-04 3.85793E-15 4.64917E-04-6.00238E-08 7.78360E-09-4.29560E-04
 -1        80-3.09484E-05-2.43207E-15 1.56856E-03 2.50746E-08 1.71100E-09-4.81647E-04
 -1        81-5.22306E-05 3.19321E-17 2.50720E-04 3.87284E-08 1.14834E-08-8.82569E-05
 -1        82-9.59369E-04 4.43498E-15 1.10988E-03 3.51944E-08-3.70744E-08-4.01100E-04
 -1        83-5.22939E-05 3.19321E-17 2.50765E-04 3.87284E-08 1.14834E-08-8.77762E-05
 -1        84-9.59411E-04 4.43498E-15 1.10941E-03 3.51944E-08-3.70744E-08-4.01331E-04
 -1        85-1.19077E-04-1.68728E-15 3.62582E-02-2.97887E-10 2.24209E-13 1.69399E-02
 -1        86-9.28980E-03 9.32296E-15 3.32251E-02-6.36616E-08-3.53240E-08 4.68819E-03
 -1        87-1.19074E-04-1.68728E-15 3.62578E-02-2.97884E-10 2.24209E-13 1.69395E-02
 -1        88-9.28977E-03 9.32296E-15 3.32248E-02-6.36616E-08-3.53240E-08 4.68818E-03
 -1        89-5.38960E-03 1.32630E-14 2.59137E-02-6.88195E-08-5.04729E-08 2.70313E-03
 -1        90-5.38898E-03 1.32630E-14 2.59136E-02-6.88195E-08-5.04729E-08 2.70330E-03
 -1        91-3.99923E-03 9.56178E-15 1.79412E-02-4.20733E-08-6.48394E-08 2.79521E-03
 -1        92-3.99852E-03 9.56178E-15 1.79412E-02-4.20734E-08-6.48394E-08 2.79537E-03
 -1        93-2.39060E-03 1.78360E-14 1.09894E-02-8.77722E-08-5.48357E-08 2.39824E-03
 -1        94-2.38972E-03 1.78360E-14 1.09896E-02-8.77723E-08-5.48356E-08 2.39823E-03
 -1        95-1.13171E-03 3.69595E-14 5.09392E-03-1.40761E-07-3.26316E-08 2.00867E-03
 -1        96-1.13071E-03 3.69595E-14 5.09435E-03-1.40761E-07-3.26316E-08 2.00890E-03
 -1        97-1.77658E-04 7.40709E-16 4.38227E-04-4.15763E-08 1.62287E-08 1.59339E-03
 -1        98-1.77068E-04 7.40709E-16 4.38586E-04-4.15764E-08 1.62286E-08 1.59350E-03
 -1        99 5.04372E-04 9.23408E-16-3.06855E-03-2.74688E-08 2.69746E-08 1.21995E-03
 -1       100 5.05040E-04 9.23408E-16-3.06865E-03-2.74689E-08 2.69746E-08 1.21970E-03
 -1       101 1.00937E-03 1.54806E-14-5.67099E-03-9.96967E-08-4.96096E-10 9.32824E-04
 -1       102 1.01053E-03 1.54806E-14-5.67131E-03-9.96968E-08-4.96034E-10 9.32595E-04
 -1       103 1.36603E-03 3.45954E-14-7.57485E-03-1.33782E-07-2.46079E-08 6.88803E-04
 -1       104 1.36687E-03 3.45954E-14-7.57472E-03-1.33782E-07-2.46079E-08 6.88830E-04
 -1       105 1.57835E-03 2.72762E-14-8.81801E-03-1.18159E-07 2.38210E-08 4.34173E-04
 -1       106 1.57891E-03 2.72762E-14-8.81753E-03-1.18159E-07 2.38210E-08 4.34171E-04
 -1       107 1.66195E-03 1.74016E-14-9.42806E-03-8.16254E-08 5.84134E-08 1.93174E-04
 -1       108 1.66268E-03 1.74016E-14-9.42792E-03-8.16255E-08 5.84134E-08 1.92984E-04
 -1       109 1.65873E-03 9.81392E-15-9.51349E-03-6.35458E-08 4.94007E-08-5.82697E-06
 -1       110 1.65937E-03 9.81392E-15-9.51384E-03-6.35458E-08 4.94007E-08-6.07977E-06
 -1       111 1.57847E-03-2.02650E-15-9.12317E-03-2.61712E-08 1.19774E-09-2.02650E-04
 -1       112 1.57953E-03-2.02650E-15-9.12356E-03-2.61712E-08 1.19774E-09-2.02779E-04
 -1       113 1.37622E-03 3.55873E-15-8.21047E-03-4.62754E-08-1.54696E-08-4.27632E-04
 -1       114 1.37632E-03 3.55873E-15-8.21007E-03-4.62754E-08-1.54696E-08-4.27875E-04
 -1       115 1.09956E-03 9.13356E-15-6.76477E-03-4.99800E-08 6.81863E-08-6.33608E-04
 -1       116 1.09973E-03 9.13356E-15-6.76439E-03-4.99801E-08 6.81863E-08-6.34254E-04
 -1       117 7.47435E-04 7.13293E-15-4.91062E-03-3.62581E-08 4.91889E-08-7.45180E-04
 -1       118 7.47414E-04 7.13293E-15-4.91061E-03-3.62581E-08 4.91889E-08-7.45253E-04
 -1       119 3.34559E-04 7.24215E-15-2.98719E-03-1.03805E-08 6.99920E-08-7.55901E-04
 -1       120 3.34597E-04 7.24215E-15-2.98751E-03-1.03806E-08 6.99920E-08-7.56280E-04
 -1       121 1.16092E-04-2.14166E-15-1.37447E-03-1.40767E-08-4.25686E-09-5.92385E-04
 -1       122 1.15850E-04-2.14166E-15-1.37444E-03-1.40767E-08-4.25686E-09-5.92688E-04
 -1       123-3.26787E-04 1.38968E-14-3.49451E-04-6.36148E-08 7.60175E-08-6.17107E-04
 -1       124-3.26744E-04 1.38968E-14-3.49426E-04-6.36148E-08 7.60175E-08-6.17337E-04
 -1       125 8.54908E-04-1.41131E-15-1.64673E-05 4.57678E-08 1.98905E-10-8.29935E-04
 -1       126 8.54824E-04-1.41131E-15-1.73779E-05 4.57678E-08 1.98963E-10-8.29211E-04
 -3
    1PSTEP                        76          19           3          
  100CL  119 3.90000E-01         126                     1   19           1
 -4  ERROR       1    1
 -5  STR(%)      1    1    0    0
 -1         1 6.07119E+01
 -1         2 6.66006E+01
 -1         3 6.66006E+01
 -1         4 6.07119E+01
 -1         5 6.07119E+01
 -1         6 6.66006E+01
 -1         7 6.66006E+01
 -1         8 6.07119E+01
 -1         9 6.46003E+01
 -1        10 5.94324E+01
 -1        11 6.46003E+01
 -1        12 5.94324E+01
 -1        13 6.42346E+01
 -1        14 5.94324E+01
 -1        15 6.42346E+01
 -1        16 5.94324E+01
 -1        17 6.16195E+01
 -1        18 5.75079E+01
 -1        19 6.16195E+01
 -1        20 5.75079E+01
 -1        21 5.46238E+01
 -1        22 5.14202E+01
 -1        23 5.46238E+01
 -1        24 5.14202E+01
 -1        25 2.69212E+01
 -1        26 2.50091E+01
 -1        27 2.69212E+01
 -1        28 2.50091E+01
 -1        29 6.18933E+01
 -1        30 5.18798E+01
 -1        31 6.18933E+01
 -1        32 5.18798E+01
 -1        33 6.85866E+01
 -1        34 5.55266E+01
 -1        35 6.85866E+01
 -1        36 5.55266E+01
 -1        37 6.88915E+01
 -1        38 5.55266E+01
 -1        39 6.88915E+01
 -1        40 5.55266E+01
 -1        41 6.88915E+01
 -1        42 5.50584E+01
 -1        43 6.88915E+01
 -1        44 5.50584E+01
 -1        45 6.81057E+01
 -1        46 5.38592E+01
 -1        47 6.81057E+01
 -1        48 5.38592E+01
 -1        49 6.83754E+01
 -1        50 5.26656E+01
 -1        51 6.83754E+01
 -1        52 5.26656E+01
 -1        53 7.10393E+01
 -1        54 5.22605E+01
 -1        55 7.10393E+01
 -1        56 5.22605E+01
 -1        57 7.44104E+01
 -1        58 5.22098E+01
 -1        59 7.44104E+01
 -1        60 5.22098E+01
 -1        61 7.81162E+01
 -1        62 5.16795E+01
 -1        63 7.81162E+01
 -1        64 5.16795E+01
 -1        65 7.82240E+01
 -1        66 5.01380E+01
 -1        67 7.82240E+01
 -1        68 5.01380E+01
 -1        69 7.82240E+01
 -1        70 4.65645E+01
 -1        71 7.82240E+01
 -1        72 4.65645E+01
 -1        73 9.46798E+01
 -1        74 4.14139E+01
 -1        75 9.46798E+01
 -1        76 4.14139E+01
 -1        77 9.46798E+01
 -1        78 6.72623E+01
 -1        79 9.46798E+01
 -1        80 6.72623E+01
 -1        81 6.72623E+01
 -1        82 6.72623E+01
 -1        83 6.72623E+01
 -1        84 6.72623E+01
 -1        85 6.66006E+01
 -1        86 6.66006E+01
 -1        87 6.66006E+01
 -1        88 6.66006E+01
 -1        89 6.46003E+01
 -1        90 6.46003E+01
 -1        91 6.42346E+01
 -1        92 6.42346E+01
 -1        93 6.16195E+01
 -1        94 6.16195E+01
 -1        95 5.46238E+01
 -1        96 5.46238E+01
 -1        97 2.69212E+01
 -1        98 2.69212E+01
 -1        99 6.18933E+01
 -1       100 6.18933E+01
 -1       101 6.85866E+01
 -1       102 6.85866E+01
 -1       103 6.88915E+01
 -1       104 6.88915E+01
 -1       105 6.88915E+01
 -1       106 6.88915E+01
 -1       107 6.81057E+01
 -1       108 6.81057E+01
 -1       109 6.83754E+01
 -1       110 6.83754E+01
 -1       111 7.10393E+01
 -1       112 7.10393E+01
 -1       113 7.44104E+01
 -1       114 7.44104E+01
 -1       115 7.81162E+01
 -1       116 7.81162E+01
 -1       117 7.82240E+01
 -1       118 7.82240E+01
 -1       119 7.82240E+01
 -1       120 7.82240E+01
 -1       121 9.46798E+01
 -1       122 9.46798E+01
 -1       123 9.46798E+01
 -1       124 9.46798E+01
 -1       125 4.29366E+01
 -1       126 4.29366E+01
 -3
    1PSTEP                        77          20           3          
  100CL  120 4.00000E-01         126                     1   20           1
 -4  DISP        4    1
 -5  D1          1    2    1    0
 -5  D2          1    2    2    0
 -5  D3          1    2    3    0
 -5  ALL         1    2    0    0    1ALL
 -1         1 0.00000E+00 0.00000E+00 0.00000E+00
 -1         2 0.00000E+00 0.00000E+00 0.00000E+00
 -1         3 1.25001E-03 0.00000E+00-7.13176E-05
 -1         4 1.69750E-03 0.00000E+00-1.99923E-03
 -1         5 0.00000E+00 0.00000E+00 0.00000E+00
 -1         6 0.00000E+00 0.00000E+00 0.00000E+00
 -1         7 1.25001E-03 0.00000E+00-7.13173E-05
 -1         8 1.69742E-03 0.00000E+00-1.99920E-03
 -1         9 4.52038E-03 0.00000E+00-2.13057E-04
 -1        10 4.67304E-03 0.00000E+00-3.71992E-03
 -1        11 4.52037E-03 0.00000E+00-2.13046E-04
 -1        12 4.67297E-03 0.00000E+00-3.71988E-03
 -1        13 9.03216E-03 0.00000E+00-4.39977E-04
 -1        14 9.02875E-03 0.00000E+00-5.07307E-03
 -1        15 9.03215E-03 0.00000E+00-4.39972E-04
 -1        16 9.02868E-03 0.00000E+00-5.07304E-03
 -1        17 1.44469E-02 0.00000E+00-7.46061E-04
 -1        18 1.42853E-02 0.00000E+00-6.12321E-03
 -1        19 1.44469E-02 0.00000E+00-7.46063E-04
 -1        20 1.42852E-02 0.00000E+00-6.12321E-03
 -1        21 2.03913E-02 0.00000E+00-1.10079E-03
 -1        22 2.01130E-02 0.00000E+00-6.88239E-03
 -1        23 2.03913E-02 0.00000E+00-1.10079E-03
 -1        24 2.01130E-02 0.00000E+00-6.88241E-03
 -1        25 2.65342E-02 0.00000E+00-1.46958E-03
 -1        26 2.61833E-02 0.00000E+00-7.37005E-03
 -1        27 2.65342E-02 0.00000E+00-1.46958E-03
 -1        28 2.61832E-02 0.00000E+00-7.37006E-03
 -1        29 3.26128E-02 0.00000E+00-1.82265E-03
 -1        30 3.22299E-02 0.00000E+00-7.62394E-03
 -1        31 3.26128E-02 0.00000E+00-1.82268E-03
 -1        32 3.22298E-02 0.00000E+00-7.62395E-03
 -1        33 3.84528E-02 0.00000E+00-2.13974E-03
 -1        34 3.80677E-02 0.00000E+00-7.69031E-03
 -1        35 3.84528E-02 0.00000E+00-2.13976E-03
 -1        36 3.80676E-02 0.00000E+00-7.69032E-03
 -1        37 4.39484E-02 0.00000E+00-2.41048E-03
 -1        38 4.35797E-02 0.00000E+00-7.60716E-03
 -1        39 4.39484E-02 0.00000E+00-2.41049E-03
 -1        40 4.35796E-02 0.00000E+00-7.60718E-03
 -1        41 4.90262E-02 0.00000E+00-2.63038E-03
 -1        42 4.86836E-02 0.00000E+00-7.39851E-03
 -1        43 4.90262E-02 0.00000E+00-2.63039E-03
 -1        44 4.86836E-02 0.00000E+00-7.39853E-03
 -1        45 5.36234E-02 0.00000E+00-2.79737E-03
 -1        46 5.33126E-02 0.00000E+00-7.08243E-03
 -1        47 5.36234E-02 0.00000E+00-2.79736E-03
 -1        48 5.33125E-02 0.00000E+00-7.08244E-03
 -1        49 5.76947E-02 0.00000E+00-2.91244E-03
 -1        50 5.74182E-02 0.00000E+00-6.67967E-03
 -1        51 5.76947E-02 0.00000E+00-2.91241E-03
 -1        52 5.74182E-02 0.00000E+00-6.67964E-03
 -1        53 6.12074E-02 0.00000E+00-2.97870E-03
 -1        54 6.09664E-02 0.00000E+00-6.21899E-03
 -1        55 6.12074E-02 0.00000E+00-2.97867E-03
 -1        56 6.09663E-02 0.00000E+00-6.21897E-03
 -1        57 6.41552E-02 0.00000E+00-3.00321E-03
 -1        58 6.39528E-02 0.00000E+00-5.74129E-03
 -1        59 6.41552E-02 0.00000E+00-3.00318E-03
 -1        60 6.39528E-02 0.00000E+00-5.74132E-03
 -1        61 6.65828E-02 0.00000E+00-2.99741E-03
 -1        62 6.64210E-02 0.00000E+00-5.29636E-03
 -1        63 6.65828E-02 0.00000E+00-2.99736E-03
 -1        64 6.64210E-02 0.00000E+00-5.29634E-03
 -1        65 6.85970E-02 0.00000E+00-2.97407E-03
 -1        66 6.84719E-02 0.00000E+00-4.92667E-03
 -1        67 6.85970E-02 0.00000E+00-2.97406E-03
 -1        68 6.84718E-02 0.00000E+00-4.92669E-03
 -1        69 7.03165E-02 0.00000E+00-2.94494E-03
 -1        70 7.02255E-02 0.00000E+00-4.64757E-03
 -1        71 7.03165E-02 0.00000E+00-2.94494E-03
 -1        72 7.02255E-02 0.00000E+00-4.64753E-03
 -1        73 7.18404E-02 0.00000E+00-2.91892E-03
 -1        74 7.17752E-02 0.00000E+00-4.45959E-03
 -1        75 7.18403E-02 0.00000E+00-2.91890E-03
 -1        76 7.17751E-02 0.00000E+00-4.45961E-03
 -1        77 7.32554E-02 0.00000E+00-2.90272E-03
 -1        78 7.32290E-02 0.00000E+00-4.36488E-03
 -1        79 7.32555E-02 0.00000E+00-2.90272E-03
 -1        80 7.32290E-02 0.00000E+00-4.36491E-03
 -1        81 7.46712E-02 0.00000E+00-2.90922E-03
 -1        82 7.46022E-02 0.00000E+00-4.32114E-03
 -1        83 7.46711E-02 0.00000E+00-2.90923E-03
 -1        84 7.46023E-02 0.00000E+00-4.32114E-03
 -1        85 0.00000E+00 0.00000E+00 0.00000E+00
 -1        86 1.75951E-03 0.00000E+00 1.81138E-03
 -1        87 0.00000E+00 0.00000E+00 0.00000E+00
 -1        88 1.75950E-03 0.00000E+00 1.81140E-03
 -1        89 4.91579E-03 0.00000E+00 3.24533E-03
 -1        90 4.91581E-03 0.00000E+00 3.24535E-03
 -1        91 9.45199E-03 0.00000E+00 4.14857E-03
 -1        92 9.45200E-03 0.00000E+00 4.14858E-03
 -1        93 1.48638E-02 0.00000E+00 4.60260E-03
 -1        94 1.48639E-02 0.00000E+00 4.60260E-03
 -1        95 2.07913E-02 0.00000E+00 4.66827E-03
 -1        96 2.07913E-02 0.00000E+00 4.66827E-03
 -1        97 2.68975E-02 0.00000E+00 4.43242E-03
 -1        98 2.68975E-02 0.00000E+00 4.43242E-03
 -1        99 3.29285E-02 0.00000E+00 3.99044E-03
 -1       100 3.29286E-02 0.00000E+00 3.99042E-03
 -1       101 3.87166E-02 0.00000E+00 3.42823E-03
 -1       102 3.87167E-02 0.00000E+00 3.42818E-03
 -1       103 4.41581E-02 0.00000E+00 2.80618E-03
 -1       104 4.41581E-02 0.00000E+00 2.80616E-03
 -1       105 4.91817E-02 0.00000E+00 2.15868E-03
 -1       106 4.91817E-02 0.00000E+00 2.15867E-03
 -1       107 5.37275E-02 0.00000E+00 1.50815E-03
 -1       108 5.37276E-02 0.00000E+00 1.50815E-03
 -1       109 5.77541E-02 0.00000E+00 8.73897E-04
 -1       110 5.77541E-02 0.00000E+00 8.73890E-04
 -1       111 6.12333E-02 0.00000E+00 2.76681E-04
 -1       112 6.12334E-02 0.00000E+00 2.76682E-04
 -1       113 6.41608E-02 0.00000E+00-2.56265E-04
 -1       114 6.41608E-02 0.00000E+00-2.56240E-04
 -1       115 6.65828E-02 0.00000E+00-6.94051E-04
 -1       116 6.65829E-02 0.00000E+00-6.94067E-04
 -1       117 6.86020E-02 0.00000E+00-1.02052E-03
 -1       118 6.86019E-02 0.00000E+00-1.02054E-03
 -1       119 7.03285E-02 0.00000E+00-1.24342E-03
 -1       120 7.03285E-02 0.00000E+00-1.24346E-03
 -1       121 7.18560E-02 0.00000E+00-1.37753E-03
 -1       122 7.18560E-02 0.00000E+00-1.37753E-03
 -1       123 7.32908E-02 0.00000E+00-1.44337E-03
 -1       124 7.32908E-02 0.00000E+00-1.44339E-03
 -1       125 7.46501E-02 0.00000E+00-1.46602E-03
 -1       126 7.46501E-02 0.00000E+00-1.46600E-03
 -3
    1PSTEP                        78          20           3          
  100CL  120 4.00000E-01         126                     1   20           1
 -4  STRESS      6    1
 -5  SXX         1    4    1    1
 -5  SYY         1    4    2    2
 -5  SZZ         1    4    3    3
 -5  SXY         1    4    1    2
 -5  SYZ         1    4    2    3
 -5  SZX         1    4    3    1
 -1         1-8.99073E+03-9.27889E+03-2.02515E+04 2.61756E-04-2.80331E-04 4.57658E+03
 -1         2-1.21054E+02-2.57016E+02-8.98127E+02-8.24194E-08-7.56597E-06 3.82519E+03
 -1         3 1.04295E+02-1.94479E+02-8.06314E+02-1.39176E-03 1.77140E-04 1.06682E+03
 -1         4-2.93195E+03-6.07168E+03-1.63440E+04-3.90994E-02 1.48640E-02 9.11105E+02
 -1         5-8.99061E+03-9.27875E+03-2.02512E+04 2.61729E-04-2.80323E-04 4.57638E+03
 -1         6-1.21051E+02-2.57015E+02-8.98122E+02-8.26961E-08-7.56601E-06 3.82518E+03
 -1         7 1.03936E+02-1.94613E+02-8.06413E+02-1.39176E-03 1.77138E-04 1.06684E+03
 -1         8-2.93270E+03-6.07196E+03-1.63442E+04-3.90992E-02 1.48640E-02 9.11103E+02
 -1         9 1.13507E+02-1.35817E+02-6.41108E+02-1.66026E-03 5.83797E-03 1.22432E+03
 -1        10-3.38448E+03-5.18970E+03-1.32761E+04-3.57573E-02 1.85147E-02 1.11777E+02
 -1        11 1.13017E+02-1.36020E+02-6.41299E+02-1.66026E-03 5.83797E-03 1.22435E+03
 -1        12-3.38523E+03-5.19003E+03-1.32764E+04-3.57572E-02 1.85146E-02 1.11873E+02
 -1        13 1.79090E+02-7.57594E+01-4.57696E+02-4.72691E-03 2.84267E-03 1.05395E+03
 -1        14-2.06604E+03-3.48420E+03-9.24091E+03-3.75751E-02 1.51922E-02 1.78339E+02
 -1        15 1.78580E+02-7.59974E+01-4.57982E+02-4.72690E-03 2.84267E-03 1.05402E+03
 -1        16-2.06683E+03-3.48460E+03-9.24141E+03-3.75749E-02 1.51922E-02 1.78434E+02
 -1        17 1.93945E+02-3.24540E+01-3.08601E+02 4.54331E-03-1.11628E-03 9.50271E+02
 -1        18-1.24407E+03-2.14846E+03-5.79261E+03-3.28303E-02 2.07489E-03 2.51340E+02
 -1        19 1.93370E+02-3.27058E+01-3.08866E+02 4.54330E-03-1.11628E-03 9.50378E+02
 -1        20-1.24494E+03-2.14889E+03-5.79316E+03-3.28302E-02 2.07486E-03 2.51440E+02
 -1        21 1.75682E+02 2.06272E+00-1.66105E+02 2.61726E-02 7.27930E-04 8.10685E+02
 -1        22-4.96215E+02-9.68464E+02-2.69855E+03-1.48170E-02-6.04337E-03 3.83934E+02
 -1        23 1.75075E+02 1.80917E+00-1.66346E+02 2.61725E-02 7.27929E-04 8.10673E+02
 -1        24-4.97090E+02-9.68849E+02-2.69895E+03-1.48170E-02-6.04336E-03 3.83929E+02
 -1        25 1.39663E+02 2.87711E+01-3.95600E+01 1.95038E-03 1.32450E-04 6.38671E+02
 -1        26 8.93455E+01-1.85510E+01-1.43718E+02-2.93186E-02-3.37212E-03 4.74832E+02
 -1        27 1.39173E+02 2.85279E+01-3.98817E+01 1.95038E-03 1.32450E-04 6.38607E+02
 -1        28 8.86714E+01-1.88413E+01-1.44013E+02-2.93185E-02-3.37211E-03 4.74788E+02
 -1        29 9.44432E+01 4.81201E+01 6.77708E+01 4.47804E-03-1.27694E-02 4.69657E+02
 -1        30 5.10814E+02 6.82870E+02 1.78175E+03-2.97544E-02-7.70054E-03 5.13800E+02
 -1        31 9.39344E+01 4.78629E+01 6.74227E+01 4.47802E-03-1.27694E-02 4.69695E+02
 -1        32 5.10086E+02 6.82551E+02 1.78142E+03-2.97543E-02-7.70054E-03 5.13841E+02
 -1        33 5.62641E+01 6.49899E+01 1.58614E+02 8.12137E-03-1.46460E-02 3.41503E+02
 -1        34 7.96225E+02 1.17153E+03 3.14597E+03-3.32839E-02-5.15608E-03 5.21290E+02
 -1        35 5.56476E+01 6.47360E+01 1.58386E+02 8.12134E-03-1.46460E-02 3.41564E+02
 -1        36 7.95349E+02 1.17116E+03 3.14558E+03-3.32838E-02-5.15609E-03 5.21347E+02
 -1        37 3.42742E+01 8.24578E+01 2.35566E+02-2.73217E-03-6.19036E-03 2.57472E+02
 -1        38 9.95685E+02 1.51752E+03 4.12207E+03-3.87648E-02-7.28292E-03 5.13741E+02
 -1        39 3.37556E+01 8.22615E+01 2.35432E+02-2.73216E-03-6.19036E-03 2.57480E+02
 -1        40 9.94914E+02 1.51718E+03 4.12170E+03-3.87646E-02-7.28291E-03 5.13738E+02
 -1        41 1.85634E+01 9.87034E+01 3.02978E+02-2.13639E-03-3.61352E-03 1.94918E+02
 -1        42 1.13321E+03 1.77007E+03 4.84698E+03-3.91179E-02-9.77015E-03 4.87961E+02
 -1        43 1.80779E+01 9.85186E+01 3.02849E+02-2.13639E-03-3.61352E-03 1.94928E+02
 -1        44 1.13245E+03 1.76975E+03 4.84667E+03-3.91178E-02-9.77014E-03 4.87931E+02
 -1        45 7.33854E+00 1.15568E+02 3.68686E+02 7.64265E-04 2.65560E-03 1.34946E+02
 -1        46 1.22311E+03 1.94909E+03 5.37070E+03-4.33112E-02-7.12998E-03 4.37978E+02
 -1        47 6.80062E+00 1.15376E+02 3.68584E+02 7.64263E-04 2.65560E-03 1.35026E+02
 -1        48 1.22234E+03 1.94883E+03 5.37060E+03-4.33110E-02-7.13000E-03 4.38028E+02
 -1        49-2.34632E+00 1.33215E+02 4.36728E+02 2.47889E-02 1.10825E-02 6.23854E+01
 -1        50 1.25783E+03 2.04516E+03 5.66667E+03-1.30866E-02 1.52758E-02 3.55012E+02
 -1        51-2.72382E+00 1.33074E+02 4.36640E+02 2.47889E-02 1.10825E-02 6.24507E+01
 -1        52 1.25715E+03 2.04492E+03 5.66654E+03-1.30865E-02 1.52758E-02 3.55110E+02
 -1        53-1.97965E+01 1.46925E+02 5.00895E+02 2.70067E-04 1.28937E-02-3.84717E+01
 -1        54 1.21501E+03 2.02931E+03 5.65650E+03-2.63130E-02 1.23799E-02 2.29343E+02
 -1        55-2.02113E+01 1.46754E+02 5.00740E+02 2.70067E-04 1.28937E-02-3.84596E+01
 -1        56 1.21431E+03 2.02894E+03 5.65593E+03-2.63129E-02 1.23799E-02 2.29310E+02
 -1        57-2.41318E+01 1.60596E+02 5.52944E+02 1.39549E-02 1.45040E-02-1.54197E+02
 -1        58 1.10562E+03 1.88388E+03 5.26764E+03-2.36358E-02-1.56703E-02 8.01453E+01
 -1        59-2.44922E+01 1.60468E+02 5.52881E+02 1.39548E-02 1.45040E-02-1.54226E+02
 -1        60 1.10485E+03 1.88355E+03 5.26731E+03-2.36357E-02-1.56703E-02 8.00060E+01
 -1        61-1.97242E+01 1.67717E+02 5.74516E+02 1.64075E-02 2.21089E-02-2.34570E+02
 -1        62 9.36671E+02 1.61217E+03 4.50664E+03-1.55852E-02 8.53079E-03-4.15626E+01
 -1        63-2.00250E+01 1.67558E+02 5.74288E+02 1.64075E-02 2.21089E-02-2.34556E+02
 -1        64 9.36045E+02 1.61192E+03 4.50645E+03-1.55851E-02 8.53080E-03-4.16321E+01
 -1        65-2.31145E+01 1.58776E+02 5.50335E+02 5.09691E-04 3.90382E-03-2.55221E+02
 -1        66 7.17948E+02 1.26215E+03 3.53273E+03-2.27300E-02-8.48750E-03-1.02428E+02
 -1        67-2.33769E+01 1.58595E+02 5.49991E+02 5.09692E-04 3.90382E-03-2.55247E+02
 -1        68 7.17523E+02 1.26200E+03 3.53266E+03-2.27300E-02-8.48749E-03-1.02508E+02
 -1        69-7.75708E+00 1.45241E+02 4.91465E+02 8.35041E-03-4.67126E-03-2.39759E+02
 -1        70 5.27017E+02 9.17330E+02 2.55432E+03-1.91712E-02 2.10263E-02-1.24201E+02
 -1        71-7.84176E+00 1.45211E+02 4.91451E+02 8.35040E-03-4.67126E-03-2.39649E+02
 -1        72 5.26434E+02 9.17077E+02 2.55405E+03-1.91712E-02 2.10263E-02-1.24059E+02
 -1        73 5.63787E+00 1.20434E+02 3.96203E+02-3.19577E-03 7.89696E-03-2.14766E+02
 -1        74 3.03338E+02 5.65006E+02 1.58974E+03-2.92872E-02-8.33051E-03-1.00942E+02
 -1        75 5.43549E+00 1.20356E+02 3.96147E+02-3.19577E-03 7.89696E-03-2.14753E+02
 -1        76 3.02639E+02 5.64618E+02 1.58914E+03-2.92871E-02-8.33049E-03-1.01020E+02
 -1        77 3.98714E+00 7.07726E+01 2.31948E+02 1.94814E-02-1.35702E-03-1.36452E+02
 -1        78 3.48536E+02 3.88034E+02 9.48452E+02-1.33259E-02-1.47475E-02-1.41642E+02
 -1        79 3.79984E+00 7.06553E+01 2.31744E+02 1.94814E-02-1.35702E-03-1.36463E+02
 -1        80 3.47905E+02 3.87790E+02 9.48265E+02-1.33259E-02-1.47475E-02-1.41577E+02
 -1        81 2.29051E+01 4.61407E+01 1.31538E+02-1.66531E-03-6.63442E-03-3.50031E+01
 -1        82-2.44129E+02 6.31246E+01 4.55948E+02 1.65560E-02 5.80083E-04-1.09263E+02
 -1        83 2.27096E+01 4.60309E+01 1.31366E+02-1.66531E-03-6.63443E-03-3.51639E+01
 -1        84-2.43594E+02 6.34318E+01 4.56437E+02 1.65560E-02 5.80094E-04-1.09041E+02
 -1        85 8.68583E+03 8.35051E+03 2.06197E+04 3.49352E-05-1.62736E-05 6.05240E+03
 -1        86 2.91288E+03 5.60191E+03 1.65992E+04-3.17044E-03 8.51819E-03 2.14715E+03
 -1        87 8.68590E+03 8.35058E+03 2.06199E+04 3.49357E-05-1.62739E-05 6.05239E+03
 -1        88 2.91297E+03 5.60197E+03 1.65993E+04-3.17044E-03 8.51819E-03 2.14714E+03
 -1        89 3.33386E+03 4.79549E+03 1.32143E+04 1.14135E-02 1.02005E-02 1.60616E+03
 -1        90 3.33358E+03 4.79536E+03 1.32141E+04 1.14135E-02 1.02005E-02 1.60618E+03
 -1        91 2.27565E+03 3.29874E+03 8.99973E+03 8.31772E-03 3.85714E-03 1.54749E+03
 -1        92 2.27537E+03 3.29860E+03 8.99954E+03 8.31771E-03 3.85714E-03 1.54753E+03
 -1        93 1.50975E+03 2.07392E+03 5.52115E+03 2.49184E-02 2.37679E-03 1.23399E+03
 -1        94 1.50937E+03 2.07375E+03 5.52098E+03 2.49184E-02 2.37681E-03 1.23409E+03
 -1        95 7.52171E+02 9.71446E+02 2.52011E+03 4.37918E-02 1.78066E-03 8.80064E+02
 -1        96 7.51772E+02 9.71268E+02 2.51992E+03 4.37917E-02 1.78065E-03 8.80023E+02
 -1        97 1.18648E+02 7.76790E+01 1.47511E+02 9.38395E-03-9.08048E-04 5.19610E+02
 -1        98 1.18394E+02 7.75366E+01 1.47289E+02 9.38394E-03-9.08052E-04 5.19525E+02
 -1        99-3.74179E+02-5.88132E+02-1.57527E+03 1.33299E-02-1.14229E-02 2.27042E+02
 -1       100-3.74451E+02-5.88310E+02-1.57559E+03 1.33299E-02-1.14229E-02 2.27084E+02
 -1       101-7.25271E+02-1.04877E+03-2.74541E+03 2.70327E-02-2.51092E-02 2.99517E+01
 -1       102-7.25685E+02-1.04896E+03-2.74563E+03 2.70326E-02-2.51091E-02 3.00294E+01
 -1       103-9.62412E+02-1.36330E+03-3.54155E+03 1.42998E-02-1.33357E-02-8.72270E+01
 -1       104-9.62696E+02-1.36337E+03-3.54150E+03 1.42998E-02-1.33357E-02-8.72105E+01
 -1       105-1.12774E+03-1.58578E+03-4.10432E+03 1.18794E-02-3.42524E-03-1.56666E+02
 -1       106-1.12797E+03-1.58585E+03-4.10431E+03 1.18794E-02-3.42524E-03-1.56646E+02
 -1       107-1.23633E+03-1.73232E+03-4.47429E+03 1.70664E-02-4.48745E-04-1.98808E+02
 -1       108-1.23666E+03-1.73247E+03-4.47444E+03 1.70664E-02-4.48736E-04-1.98737E+02
 -1       109-1.28912E+03-1.79699E+03-4.63252E+03 2.73749E-02-3.53703E-03-2.28424E+02
 -1       110-1.28919E+03-1.79702E+03-4.63256E+03 2.73749E-02-3.53702E-03-2.28348E+02
 -1       111-1.28216E+03-1.76037E+03-4.52050E+03 1.34372E-02 4.24645E-05-2.63324E+02
 -1       112-1.28238E+03-1.76042E+03-4.52048E+03 1.34372E-02 4.24703E-05-2.63272E+02
 -1       113-1.17284E+03-1.58446E+03-4.05615E+03 1.65464E-02 1.27012E-02-2.98401E+02
 -1       114-1.17294E+03-1.58453E+03-4.05627E+03 1.65464E-02 1.27012E-02-2.98408E+02
 -1       115-9.83076E+02-1.28998E+03-3.28278E+03 8.00084E-03-8.42891E-03-3.04669E+02
 -1       116-9.83017E+02-1.29002E+03-3.28295E+03 8.00085E-03-8.42889E-03-3.04571E+02
 -1       117-7.64548E+02-9.52024E+02-2.39101E+03-9.41249E-03-7.89198E-03-2.77921E+02
 -1       118-7.64399E+02-9.51989E+02-2.39104E+03-9.41250E-03-7.89198E-03-2.77906E+02
 -1       119-5.32832E+02-6.23121E+02-1.53668E+03-9.90770E-03-1.89982E-02-2.45023E+02
 -1       120-5.32418E+02-6.22926E+02-1.53644E+03-9.90772E-03-1.89982E-02-2.44937E+02
 -1       121-2.83248E+02-3.22491E+02-7.89674E+02-8.17518E-03-4.46893E-04-1.92532E+02
 -1       122-2.83099E+02-3.22404E+02-7.89534E+02-8.17518E-03-4.46896E-04-1.92457E+02
 -1       123-2.75993E+02-1.78949E+02-3.19680E+02-1.55339E-03-9.48343E-03-1.92072E+02
 -1       124-2.75487E+02-1.78701E+02-3.19361E+02-1.55339E-03-9.48343E-03-1.91913E+02
 -1       125 4.18210E+02 1.74085E+02 1.63294E+02 2.95978E-02 1.18943E-02-2.62477E+02
 -1       126 4.17769E+02 1.74009E+02 1.63481E+02 2.95978E-02 1.18943E-02-2.62393E+02
 -3
    1PSTEP                        79          20           3          
  100CL  120 4.00000E-01         126                     1   20           1
 -4  TOSTRAIN    6    1
 -5  EXX         1    4    1    1
 -5  EYY         1    4    2    2
 -5  EZZ         1    4    3    3
 -5  EXY         1    4    1    2
 -5  EYZ         1    4    2    3
 -5  EZX         1    4    3    1
 -1         1-1.30729E-04-5.29461E-15-3.87386E-02 5.32179E-10-3.24659E-13 1.69747E-02
 -1         2-1.28685E-04 5.04153E-16-1.24148E-03 2.98169E-12-3.80612E-13 1.24999E-02
 -1         3 4.53734E-05-2.79296E-15-1.00888E-03-4.36975E-09 3.21611E-10 3.57522E-03
 -1         4 9.62458E-03 2.90868E-14-3.54374E-02-1.29334E-07 4.57691E-08 5.01214E-03
 -1         5-1.30722E-04-5.29461E-15-3.87380E-02 5.32143E-10-3.24659E-13 1.69739E-02
 -1         6-1.28682E-04 5.04153E-16-1.24147E-03 2.98117E-12-3.80613E-13 1.24998E-02
 -1         7 4.46670E-05-2.79296E-15-1.00877E-03-4.36975E-09 3.21603E-10 3.57527E-03
 -1         8 9.62308E-03 2.90868E-14-3.54370E-02-1.29334E-07 4.57692E-08 5.01206E-03
 -1         9-4.74410E-05-1.96981E-15-6.37987E-04-6.69843E-09 1.85125E-08 4.11824E-03
 -1        10 5.45270E-03 3.03021E-14-2.75406E-02-1.20774E-07 5.38323E-08 2.77730E-03
 -1        11-4.83717E-05-1.96981E-15-6.37939E-04-6.69842E-09 1.85125E-08 4.11827E-03
 -1        12 5.45133E-03 3.03021E-14-2.75406E-02-1.20773E-07 5.38323E-08 2.77753E-03
 -1        13 6.22857E-06-2.03503E-15-3.78993E-04-1.60927E-08 7.70344E-09 3.55996E-03
 -1        14 4.19352E-03 3.02279E-14-1.91099E-02-1.26577E-07 3.88071E-08 2.84021E-03
 -1        15 5.31588E-06-2.03503E-15-3.79115E-04-1.60927E-08 7.70344E-09 3.56010E-03
 -1        16 4.19219E-03 3.02279E-14-1.91102E-02-1.26577E-07 3.88071E-08 2.84045E-03
 -1        17-2.59339E-05-3.70851E-15-1.33251E-04 1.51706E-08-2.08179E-09 3.19221E-03
 -1        18 2.54245E-03 1.68129E-14-1.17782E-02-1.06884E-07-4.87038E-09 2.44346E-03
 -1        19-2.70530E-05-3.70851E-15-1.33225E-04 1.51706E-08-2.08179E-09 3.19245E-03
 -1        20 2.54099E-03 1.68129E-14-1.17786E-02-1.06884E-07-4.87043E-09 2.44369E-03
 -1        21-9.09978E-05 9.07687E-15 9.48975E-05 8.42034E-08 1.21748E-08 2.69114E-03
 -1        22 1.13239E-03-1.67954E-15-5.30907E-03-4.54398E-08-2.52397E-08 2.06382E-03
 -1        23-9.21148E-05 9.07687E-15 9.49145E-05 8.42033E-08 1.21748E-08 2.69097E-03
 -1        24 1.13084E-03-1.67954E-15-5.30917E-03-4.54397E-08-2.52397E-08 2.06364E-03
 -1        25-1.51677E-04-3.04851E-15 2.75396E-04 6.24342E-09 1.19491E-09 2.08467E-03
 -1        26-3.13533E-05 1.45044E-14-4.47810E-05-9.32480E-08-2.21174E-08 1.59174E-03
 -1        27-1.52420E-04-3.04851E-15 2.75085E-04 6.24342E-09 1.19491E-09 2.08440E-03
 -1        28-3.25471E-05 1.45044E-14-4.48451E-05-9.32479E-08-2.21174E-08 1.59146E-03
 -1        29-2.18549E-04 1.35113E-15 4.25137E-04 1.93752E-08-3.95021E-08 1.49366E-03
 -1        30-8.99091E-04 1.56235E-14 3.86709E-03-9.30350E-08-3.58988E-08 1.13959E-03
 -1        31-2.19392E-04 1.35113E-15 4.24865E-04 1.93751E-08-3.95021E-08 1.49373E-03
 -1        32-9.00440E-04 1.56235E-14 3.86705E-03-9.30349E-08-3.58988E-08 1.13957E-03
 -1        33-2.89767E-04 1.61327E-15 5.66682E-04 3.15705E-08-4.43211E-08 1.04431E-03
 -1        34-1.51442E-03 1.75161E-14 6.61176E-03-1.05548E-07-2.84142E-08 7.96755E-04
 -1        35-2.90979E-04 1.61327E-15 5.66795E-04 3.15705E-08-4.43211E-08 1.04437E-03
 -1        36-1.51607E-03 1.75161E-14 6.61175E-03-1.05548E-07-2.84142E-08 7.96765E-04
 -1        37-3.49376E-04-2.23936E-15 6.99026E-04-6.76136E-09-2.09345E-08 7.49690E-04
 -1        38-1.95153E-03 2.82021E-14 8.56093E-03-1.22693E-07-3.62756E-08 5.69929E-04
 -1        39-3.50417E-04-2.23936E-15 6.99218E-04-6.76136E-09-2.09345E-08 7.49588E-04
 -1        40-1.95292E-03 2.82021E-14 8.56083E-03-1.22693E-07-3.62756E-08 5.69786E-04
 -1        41-4.06127E-04-2.51110E-15 8.23553E-04-5.83873E-09-1.23745E-08 5.33038E-04
 -1        42-2.28681E-03 2.92720E-14 1.00022E-02-1.23363E-07-4.32496E-08 3.99543E-04
 -1        43-4.07105E-04-2.51110E-15 8.23731E-04-5.83872E-09-1.23745E-08 5.32958E-04
 -1        44-2.28822E-03 2.92720E-14 1.00022E-02-1.23363E-07-4.32496E-08 3.99315E-04
 -1        45-4.57604E-04-5.04089E-15 9.46106E-04 1.64521E-09 8.82606E-09 3.31028E-04
 -1        46-2.53378E-03 3.10928E-14 1.10343E-02-1.38097E-07-3.46994E-08 2.42739E-04
 -1        47-4.58766E-04-5.04089E-15 9.46435E-04 1.64520E-09 8.82606E-09 3.31163E-04
 -1        48-2.53546E-03 3.10928E-14 1.10349E-02-1.38097E-07-3.46995E-08 2.42708E-04
 -1        49-5.06663E-04 1.05417E-14 1.07063E-03 7.75581E-08 4.20072E-08 9.30218E-05
 -1        50-2.68460E-03 5.75023E-16 1.16070E-02-4.61890E-08 4.56194E-08 6.00006E-05
 -1        51-5.07477E-04 1.05417E-14 1.07083E-03 7.75581E-08 4.20072E-08 9.31589E-05
 -1        52-2.68609E-03 5.75023E-16 1.16074E-02-4.61890E-08 4.56194E-08 6.01697E-05
 -1        53-5.62798E-04 4.69607E-16 1.18661E-03-1.88681E-09 4.18165E-08-2.32613E-04
 -1        54-2.71650E-03 1.39616E-14 1.15695E-02-8.78486E-08 3.40108E-08-1.91457E-04
 -1        55-5.63587E-04 4.69607E-16 1.18666E-03-1.88680E-09 4.18165E-08-2.32629E-04
 -1        56-2.71753E-03 1.39616E-14 1.15689E-02-8.78485E-08 3.40108E-08-1.91590E-04
 -1        57-5.78482E-04 4.35541E-15 1.26370E-03 4.27124E-08 4.94017E-08-5.98605E-04
 -1        58-2.54698E-03 6.65687E-15 1.07623E-02-7.39273E-08-5.44828E-08-4.70670E-04
 -1        59-5.79234E-04 4.35541E-15 1.26389E-03 4.27124E-08 4.94017E-08-5.98750E-04
 -1        60-2.54838E-03 6.65687E-15 1.07622E-02-7.39271E-08-5.44828E-08-4.71190E-04
 -1        61-5.61800E-04 1.12049E-14 1.28114E-03 5.00620E-08 7.41384E-08-8.44916E-04
 -1        62-2.17879E-03 7.41418E-16 9.20388E-03-5.18409E-08 2.49562E-08-6.54544E-04
 -1        63-5.62274E-04 1.12049E-14 1.28092E-03 5.00620E-08 7.41384E-08-8.44889E-04
 -1        64-2.18001E-03 7.41418E-16 9.20402E-03-5.18409E-08 2.49562E-08-6.54837E-04
 -1        65-5.39316E-04-2.29623E-15 1.22308E-03 1.16849E-09 1.27031E-08-8.96761E-04
 -1        66-1.74018E-03 8.34267E-15 7.23421E-03-7.27416E-08-3.02248E-08-6.77662E-04
 -1        67-5.39575E-04-2.29623E-15 1.22256E-03 1.16849E-09 1.27031E-08-8.96838E-04
 -1        68-1.74107E-03 8.34267E-15 7.23445E-03-7.27415E-08-3.02248E-08-6.77960E-04
 -1        69-4.50630E-04-1.74340E-15 1.07804E-03 2.76158E-08-1.41617E-08-8.30188E-04
 -1        70-1.23938E-03 9.69032E-15 5.22819E-03-6.44954E-08 6.57777E-08-6.19345E-04
 -1        71-4.50836E-04-1.74340E-15 1.07811E-03 2.76158E-08-1.41617E-08-8.29838E-04
 -1        72-1.24048E-03 9.69032E-15 5.22819E-03-6.44953E-08 6.57777E-08-6.18929E-04
 -1        73-3.32806E-04-1.53716E-15 8.54098E-04-1.11458E-08 2.52957E-08-7.34025E-04
 -1        74-8.28049E-04 1.46226E-14 3.28217E-03-9.43103E-08-2.98986E-08-4.52503E-04
 -1        75-3.33213E-04-1.53716E-15 8.54168E-04-1.11458E-08 2.52957E-08-7.34000E-04
 -1        76-8.29047E-04 1.46226E-14 3.28148E-03-9.43102E-08-2.98986E-08-4.52768E-04
 -1        77-1.91038E-04 4.05505E-15 4.97496E-04 6.34150E-08-2.55469E-09-4.63672E-04
 -1        78-1.01027E-04 2.29614E-15 1.78522E-03-4.19246E-08-4.90497E-08-5.14062E-04
 -1        79-1.91264E-04 4.05505E-15 4.97214E-04 6.34149E-08-2.55468E-09-4.63708E-04
 -1        80-1.02291E-04 2.29614E-15 1.78542E-03-4.19245E-08-4.90497E-08-5.13896E-04
 -1        81-7.02704E-05-1.78775E-15 2.70820E-04-4.80840E-09-2.17070E-08-1.23227E-04
 -1        82-9.78718E-04 2.26241E-15 1.25204E-03 5.37603E-08 3.41865E-09-4.18105E-04
 -1        83-7.05177E-05-1.78775E-15 2.70590E-04-4.80839E-09-2.17071E-08-1.23751E-04
 -1        84-9.78015E-04 2.26241E-15 1.25267E-03 5.37603E-08 3.41869E-09-4.17380E-04
 -1        85-1.26640E-04-2.25834E-16 3.73754E-02 1.45336E-10-1.78069E-13 1.75948E-02
 -1        86-9.53384E-03 9.31073E-16 3.41870E-02-1.15299E-08 2.62182E-08 4.89032E-03
 -1        87-1.26642E-04-2.25834E-16 3.73757E-02 1.45337E-10-1.78069E-13 1.75947E-02
 -1        88-9.53375E-03 9.31073E-16 3.41873E-02-1.15299E-08 2.62182E-08 4.89026E-03
 -1        89-5.54758E-03 3.60135E-15 2.66496E-02 3.44214E-08 3.44185E-08 2.76589E-03
 -1        90-5.54807E-03 3.60135E-15 2.66495E-02 3.44214E-08 3.44185E-08 2.76592E-03
 -1        91-4.18106E-03 5.91323E-16 1.86300E-02 2.56655E-08 1.45869E-08 2.81405E-03
 -1        92-4.18156E-03 5.91323E-16 1.86299E-02 2.56655E-08 1.45869E-08 2.81415E-03
 -1        93-2.59432E-03 1.06104E-14 1.16474E-02 7.95229E-08 1.60580E-08 2.45894E-03
 -1        94-2.59509E-03 1.06104E-14 1.16474E-02 7.95228E-08 1.60580E-08 2.45917E-03
 -1        95-1.31439E-03 3.67221E-14 5.54286E-03 1.40511E-07 2.20218E-08 2.09438E-03
 -1        96-1.31507E-03 3.67221E-14 5.54276E-03 1.40510E-07 2.20218E-08 2.09417E-03
 -1        97-2.72000E-04-6.05331E-16 6.12312E-04 3.06218E-08 6.94016E-10 1.62558E-03
 -1        98-2.72293E-04-6.05331E-16 6.11987E-04 3.06218E-08 6.93999E-10 1.62530E-03
 -1        99 4.61993E-04 5.46461E-15-3.00430E-03 4.74515E-08-3.19613E-08 1.17525E-03
 -1       100 4.61656E-04 5.46461E-15-3.00473E-03 4.74515E-08-3.19613E-08 1.17540E-03
 -1       101 9.34887E-04 2.63154E-14-5.46420E-03 9.66050E-08-7.18491E-08 8.31082E-04
 -1       102 9.34107E-04 2.63154E-14-5.46423E-03 9.66050E-08-7.18491E-08 8.31261E-04
 -1       103 1.25278E-03 6.28867E-15-7.13541E-03 5.08286E-08-3.86553E-08 6.01443E-04
 -1       104 1.25209E-03 6.28867E-15-7.13502E-03 5.08285E-08-3.86553E-08 6.01381E-04
 -1       105 1.47456E-03 2.31651E-15-8.31282E-03 3.95417E-08-7.48361E-09 4.29537E-04
 -1       106 1.47401E-03 2.31651E-15-8.31257E-03 3.95417E-08-7.48361E-09 4.29523E-04
 -1       107 1.61858E-03 5.01468E-15-9.08573E-03 5.54521E-08 3.41615E-09 2.70678E-04
 -1       108 1.61793E-03 5.01468E-15-9.08571E-03 5.54520E-08 3.41616E-09 2.70861E-04
 -1       109 1.67128E-03 1.48901E-14-9.41601E-03 8.97621E-08-4.68708E-09 8.73528E-05
 -1       110 1.67113E-03 1.48901E-14-9.41600E-03 8.97621E-08-4.68708E-09 8.75946E-05
 -1       111 1.59091E-03 2.06584E-15-9.17888E-03 4.36229E-08 3.08360E-09-1.68993E-04
 -1       112 1.59036E-03 2.06584E-15-9.17857E-03 4.36229E-08 3.08359E-09-1.68879E-04
 -1       113 1.39001E-03 8.44605E-15-8.22356E-03 5.15653E-08 4.46936E-08-4.58291E-04
 -1       114 1.38991E-03 8.44605E-15-8.22373E-03 5.15653E-08 4.46936E-08-4.58315E-04
 -1       115 1.05518E-03-1.76583E-15-6.62361E-03 2.72598E-08-2.62674E-08-6.51496E-04
 -1       116 1.05546E-03-1.76583E-15-6.62404E-03 2.72598E-08-2.62674E-08-6.51142E-04
 -1       117 6.61550E-04 1.75433E-15-4.77531E-03-2.96287E-08-2.69826E-08-7.01766E-04
 -1       118 6.61920E-04 1.75433E-15-4.77553E-03-2.96287E-08-2.69826E-08-7.01699E-04
 -1       119 3.38117E-04 7.14452E-15-3.03332E-03-3.01803E-08-6.30298E-08-6.88252E-04
 -1       120 3.38811E-04 7.14452E-15-3.03317E-03-3.01804E-08-6.30298E-08-6.87948E-04
 -1       121 1.62437E-04 3.82931E-16-1.55861E-03-2.65283E-08-2.25512E-09-5.76124E-04
 -1       122 1.62622E-04 3.82931E-16-1.55842E-03-2.65283E-08-2.25513E-09-5.75880E-04
 -1       123-2.81049E-04-1.48696E-15-4.93979E-04-4.16794E-09-3.09658E-08-6.19902E-04
 -1       124-2.80238E-04-1.48696E-15-4.93717E-04-4.16793E-09-3.09658E-08-6.19367E-04
 -1       125 8.38177E-04 1.38267E-14-8.34725E-05 9.50041E-08 4.14092E-08-8.26721E-04
 -1       126 8.36980E-04 1.38267E-14-8.26038E-05 9.50040E-08 4.14093E-08-8.26504E-04
 -3
    1PSTEP                        80          20           3          
  100CL  120 4.00000E-01         126                     1   20           1
 -4  ERROR       1    1
 -5  STR(%)      1    1    0    0
 -1         1 6.06326E+01
 -1         2 6.67372E+01
 -1         3 6.67372E+01
 -1         4 6.06326E+01
 -1         5 6.06326E+01
 -1         6 6.67372E+01
 -1         7 6.67372E+01
 -1         8 6.06326E+01
 -1         9 6.46233E+01
 -1        10 5.96062E+01
 -1        11 6.46233E+01
 -1        12 5.96062E+01
 -1        13 6.42084E+01
 -1        14 5.96062E+01
 -1        15 6.42084E+01
 -1        16 5.96062E+01
 -1        17 6.16266E+01
 -1        18 5.81037E+01
 -1        19 6.16266E+01
 -1        20 5.81037E+01
 -1        21 5.38875E+01
 -1        22 5.23059E+01
 -1        23 5.38875E+01
 -1        24 5.23059E+01
 -1        25 2.56002E+01
 -1        26 2.56002E+01
 -1        27 2.56002E+01
 -1        28 2.56002E+01
 -1        29 6.41545E+01
 -1        30 5.20523E+01
 -1        31 6.41545E+01
 -1        32 5.20523E+01
 -1        33 6.91641E+01
 -1        34 5.53539E+01
 -1        35 6.91641E+01
 -1        36 5.53539E+01
 -1        37 6.91641E+01
 -1        38 5.53539E+01
 -1        39 6.91641E+01
 -1        40 5.53539E+01
 -1        41 6.85957E+01
 -1        42 5.52470E+01
 -1        43 6.85957E+01
 -1        44 5.52470E+01
 -1        45 6.78056E+01
 -1        46 5.46183E+01
 -1        47 6.78056E+01
 -1        48 5.46183E+01
 -1        49 6.72523E+01
 -1        50 5.37634E+01
 -1        51 6.72523E+01
 -1        52 5.37634E+01
 -1        53 7.03349E+01
 -1        54 5.27923E+01
 -1        55 7.03349E+01
 -1        56 5.27923E+01
 -1        57 7.48237E+01
 -1        58 5.27233E+01
 -1        59 7.48237E+01
 -1        60 5.27233E+01
 -1        61 7.92493E+01
 -1        62 5.18532E+01
 -1        63 7.92493E+01
 -1        64 5.18532E+01
 -1        65 8.16090E+01
 -1        66 4.97490E+01
 -1        67 8.16090E+01
 -1        68 4.97490E+01
 -1        69 8.16090E+01
 -1        70 4.63403E+01
 -1        71 8.16090E+01
 -1        72 4.63403E+01
 -1        73 1.00133E+02
 -1        74 4.21122E+01
 -1        75 1.00133E+02
 -1        76 4.21122E+01
 -1        77 1.00133E+02
 -1        78 6.51398E+01
 -1        79 1.00133E+02
 -1        80 6.51398E+01
 -1        81 6.51398E+01
 -1        82 6.51398E+01
 -1        83 6.51398E+01
 -1        84 6.51398E+01
 -1        85 6.67372E+01
 -1        86 6.67372E+01
 -1        87 6.67372E+01
 -1        88 6.67372E+01
 -1        89 6.46233E+01
 -1        90 6.46233E+01
 -1        91 6.42084E+01
 -1        92 6.42084E+01
 -1        93 6.16266E+01
 -1        94 6.16266E+01
 -1        95 5.38875E+01
 -1        96 5.38875E+01
 -1        97 2.50066E+01
 -1        98 2.50066E+01
 -1        99 6.41545E+01
 -1       100 6.41545E+01
 -1       101 6.91641E+01
 -1       102 6.91641E+01
 -1       103 6.91641E+01
 -1       104 6.91641E+01
 -1       105 6.85957E+01
 -1       106 6.85957E+01
 -1       107 6.78056E+01
 -1       108 6.78056E+01
 -1       109 6.72523E+01
 -1       110 6.72523E+01
 -1       111 7.03349E+01
 -1       112 7.03349E+01
 -1       113 7.48237E+01
 -1       114 7.48237E+01
 -1       115 7.92493E+01
 -1       116 7.92493E+01
 -1       117 8.16090E+01
 -1       118 8.16090E+01
 -1       119 8.16090E+01
 -1       120 8.16090E+01
 -1       121 1.00133E+02
 -1       122 1.00133E+02
 -1       123 1.00133E+02
 -1       124 1.00133E+02
 -1       125 3.67929E+01
 -1       126 3.67929E+01
 -3
    1PSTEP                        81          21           3          
  100CL  121 4.10000E-01         126                     1   21           1
 -4  DISP        4    1
 -5  D1          1    2    1    0
 -5  D2          1    2    2    0
 -5  D3          1    2    3    0
 -5  ALL         1    2    0    0    1ALL
 -1         1 0.00000E+00 0.00000E+00 0.00000E+00
 -1         2 0.00000E+00 0.00000E+00 0.00000E+00
 -1         3 1.29183E-03 0.00000E+00-6.68824E-05
 -1         4 1.74733E-03 0.00000E+00-2.04857E-03
 -1         5 0.00000E+00 0.00000E+00 0.00000E+00
 -1         6 0.00000E+00 0.00000E+00 0.00000E+00
 -1         7 1.29183E-03 0.00000E+00-6.68698E-05
 -1         8 1.74738E-03 0.00000E+00-2.04854E-03
 -1         9 4.65199E-03 0.00000E+00-2.05670E-04
 -1        10 4.80228E-03 0.00000E+00-3.80597E-03
 -1        11 4.65195E-03 0.00000E+00-2.05644E-04
 -1        12 4.80228E-03 0.00000E+00-3.80593E-03
 -1        13 9.28014E-03 0.00000E+00-4.30554E-04
 -1        14 9.26661E-03 0.00000E+00-5.18520E-03
 -1        15 9.28010E-03 0.00000E+00-4.30522E-04
 -1        16 9.26661E-03 0.00000E+00-5.18519E-03
 -1        17 1.48328E-02 0.00000E+00-7.36206E-04
 -1        18 1.46557E-02 0.00000E+00-6.25743E-03
 -1        19 1.48328E-02 0.00000E+00-7.36190E-04
 -1        20 1.46558E-02 0.00000E+00-6.25744E-03
 -1        21 2.09314E-02 0.00000E+00-1.09528E-03
 -1        22 2.06353E-02 0.00000E+00-7.04204E-03
 -1        23 2.09314E-02 0.00000E+00-1.09529E-03
 -1        24 2.06353E-02 0.00000E+00-7.04203E-03
 -1        25 2.72561E-02 0.00000E+00-1.47486E-03
 -1        26 2.68844E-02 0.00000E+00-7.56114E-03
 -1        27 2.72561E-02 0.00000E+00-1.47488E-03
 -1        28 2.68844E-02 0.00000E+00-7.56113E-03
 -1        29 3.35401E-02 0.00000E+00-1.84433E-03
 -1        30 3.31351E-02 0.00000E+00-7.84556E-03
 -1        31 3.35400E-02 0.00000E+00-1.84434E-03
 -1        32 3.31351E-02 0.00000E+00-7.84555E-03
 -1        33 3.95877E-02 0.00000E+00-2.18167E-03
 -1        34 3.91823E-02 0.00000E+00-7.93860E-03
 -1        35 3.95877E-02 0.00000E+00-2.18168E-03
 -1        36 3.91823E-02 0.00000E+00-7.93863E-03
 -1        37 4.52831E-02 0.00000E+00-2.47502E-03
 -1        38 4.48979E-02 0.00000E+00-7.88646E-03
 -1        39 4.52832E-02 0.00000E+00-2.47504E-03
 -1        40 4.48979E-02 0.00000E+00-7.88649E-03
 -1        41 5.05722E-02 0.00000E+00-2.72128E-03
 -1        42 5.02169E-02 0.00000E+00-7.72164E-03
 -1        43 5.05722E-02 0.00000E+00-2.72129E-03
 -1        44 5.02169E-02 0.00000E+00-7.72164E-03
 -1        45 5.54139E-02 0.00000E+00-2.91961E-03
 -1        46 5.50915E-02 0.00000E+00-7.45637E-03
 -1        47 5.54139E-02 0.00000E+00-2.91961E-03
 -1        48 5.50915E-02 0.00000E+00-7.45635E-03
 -1        49 5.97472E-02 0.00000E+00-3.06787E-03
 -1        50 5.94601E-02 0.00000E+00-7.10137E-03
 -1        51 5.97472E-02 0.00000E+00-3.06786E-03
 -1        52 5.94601E-02 0.00000E+00-7.10136E-03
 -1        53 6.35255E-02 0.00000E+00-3.16765E-03
 -1        54 6.32782E-02 0.00000E+00-6.68625E-03
 -1        55 6.35254E-02 0.00000E+00-3.16763E-03
 -1        56 6.32782E-02 0.00000E+00-6.68626E-03
 -1        57 6.67554E-02 0.00000E+00-3.22587E-03
 -1        58 6.65497E-02 0.00000E+00-6.25670E-03
 -1        59 6.67554E-02 0.00000E+00-3.22584E-03
 -1        60 6.65497E-02 0.00000E+00-6.25665E-03
 -1        61 6.94958E-02 0.00000E+00-3.25186E-03
 -1        62 6.93291E-02 0.00000E+00-5.85844E-03
 -1        63 6.94957E-02 0.00000E+00-3.25186E-03
 -1        64 6.93292E-02 0.00000E+00-5.85842E-03
 -1        65 7.18352E-02 0.00000E+00-3.25713E-03
 -1        66 7.17060E-02 0.00000E+00-5.52154E-03
 -1        67 7.18352E-02 0.00000E+00-3.25713E-03
 -1        68 7.17060E-02 0.00000E+00-5.52148E-03
 -1        69 7.38709E-02 0.00000E+00-3.25272E-03
 -1        70 7.37754E-02 0.00000E+00-5.26318E-03
 -1        71 7.38708E-02 0.00000E+00-3.25270E-03
 -1        72 7.37754E-02 0.00000E+00-5.26319E-03
 -1        73 7.57032E-02 0.00000E+00-3.24848E-03
 -1        74 7.56323E-02 0.00000E+00-5.08834E-03
 -1        75 7.57032E-02 0.00000E+00-3.24849E-03
 -1        76 7.56323E-02 0.00000E+00-5.08837E-03
 -1        77 7.74134E-02 0.00000E+00-3.24937E-03
 -1        78 7.73803E-02 0.00000E+00-5.00249E-03
 -1        79 7.74134E-02 0.00000E+00-3.24938E-03
 -1        80 7.73804E-02 0.00000E+00-5.00248E-03
 -1        81 7.91199E-02 0.00000E+00-3.26797E-03
 -1        82 7.90441E-02 0.00000E+00-4.96970E-03
 -1        83 7.91199E-02 0.00000E+00-3.26797E-03
 -1        84 7.90441E-02 0.00000E+00-4.96973E-03
 -1        85 0.00000E+00 0.00000E+00 0.00000E+00
 -1        86 1.81850E-03 0.00000E+00 1.86592E-03
 -1        87 0.00000E+00 0.00000E+00 0.00000E+00
 -1        88 1.81852E-03 0.00000E+00 1.86592E-03
 -1        89 5.06332E-03 0.00000E+00 3.34193E-03
 -1        90 5.06330E-03 0.00000E+00 3.34195E-03
 -1        91 9.72124E-03 0.00000E+00 4.27608E-03
 -1        92 9.72122E-03 0.00000E+00 4.27614E-03
 -1        93 1.52743E-02 0.00000E+00 4.75332E-03
 -1        94 1.52743E-02 0.00000E+00 4.75337E-03
 -1        95 2.13585E-02 0.00000E+00 4.83651E-03
 -1        96 2.13585E-02 0.00000E+00 4.83652E-03
 -1        97 2.76479E-02 0.00000E+00 4.61061E-03
 -1        98 2.76479E-02 0.00000E+00 4.61057E-03
 -1        99 3.38818E-02 0.00000E+00 4.16624E-03
 -1       100 3.38818E-02 0.00000E+00 4.16622E-03
 -1       101 3.98743E-02 0.00000E+00 3.59094E-03
 -1       102 3.98742E-02 0.00000E+00 3.59095E-03
 -1       103 4.55147E-02 0.00000E+00 2.95471E-03
 -1       104 4.55148E-02 0.00000E+00 2.95471E-03
 -1       105 5.07492E-02 0.00000E+00 2.29854E-03
 -1       106 5.07492E-02 0.00000E+00 2.29852E-03
 -1       107 5.55373E-02 0.00000E+00 1.63736E-03
 -1       108 5.55374E-02 0.00000E+00 1.63734E-03
 -1       109 5.98227E-02 0.00000E+00 9.83988E-04
 -1       110 5.98227E-02 0.00000E+00 9.83993E-04
 -1       111 6.35637E-02 0.00000E+00 3.65811E-04
 -1       112 6.35637E-02 0.00000E+00 3.65843E-04
 -1       113 6.67723E-02 0.00000E+00-1.83071E-04
 -1       114 6.67723E-02 0.00000E+00-1.83067E-04
 -1       115 6.95055E-02 0.00000E+00-6.37858E-04
 -1       116 6.95055E-02 0.00000E+00-6.37853E-04
 -1       117 7.18441E-02 0.00000E+00-9.90049E-04
 -1       118 7.18442E-02 0.00000E+00-9.90063E-04
 -1       119 7.38854E-02 0.00000E+00-1.24155E-03
 -1       120 7.38854E-02 0.00000E+00-1.24154E-03
 -1       121 7.57216E-02 0.00000E+00-1.40500E-03
 -1       122 7.57216E-02 0.00000E+00-1.40500E-03
 -1       123 7.74544E-02 0.00000E+00-1.49416E-03
 -1       124 7.74545E-02 0.00000E+00-1.49416E-03
 -1       125 7.91065E-02 0.00000E+00-1.53158E-03
 -1       126 7.91065E-02 0.00000E+00-1.53160E-03
 -3
    1PSTEP                        82          21           3          
  100CL  121 4.10000E-01         126                     1   21           1
 -4  STRESS      6    1
 -5  SXX         1    4    1    1
 -5  SYY         1    4    2    2
 -5  SZZ         1    4    3    3
 -5  SXY         1    4    1    2
 -5  SYZ         1    4    2    3
 -5  SZX         1    4    3    1
 -1         1-9.20232E+03-9.50786E+03-2.07184E+04-1.19013E-05 1.48302E-04 4.69466E+03
 -1         2-8.56423E+01-2.31606E+02-8.55728E+02 4.18907E-05-9.87796E-06 3.95398E+03
 -1         3 1.24405E+02-1.73659E+02-7.60533E+02-1.13978E-03 6.44492E-03 1.10945E+03
 -1         4-2.99852E+03-6.20834E+03-1.66915E+04 2.40635E-02 1.11040E-02 9.27651E+02
 -1         5-9.20218E+03-9.50774E+03-2.07182E+04-1.19116E-05 1.48300E-04 4.69480E+03
 -1         6-8.55878E+01-2.31548E+02-8.55591E+02 4.18906E-05-9.87801E-06 3.95398E+03
 -1         7 1.24573E+02-1.73559E+02-7.60356E+02-1.13978E-03 6.44493E-03 1.10943E+03
 -1         8-2.99789E+03-6.20802E+03-1.66911E+04 2.40636E-02 1.11040E-02 9.27676E+02
 -1         9 1.47599E+02-9.85562E+01-5.55419E+02-1.91429E-02 1.33126E-02 1.26220E+03
 -1        10-3.44682E+03-5.28169E+03-1.34999E+04-2.39036E-03 1.82866E-02 9.80154E+01
 -1        11 1.47759E+02-9.84659E+01-5.55276E+02-1.91429E-02 1.33126E-02 1.26218E+03
 -1        12-3.44651E+03-5.28157E+03-1.34998E+04-2.39037E-03 1.82866E-02 9.79772E+01
 -1        13 2.07978E+02-3.12111E+01-3.40169E+02-1.88693E-02 1.63531E-02 1.08069E+03
 -1        14-2.10472E+03-3.53362E+03-9.36068E+03 1.10329E-03 4.23101E-03 1.62816E+02
 -1        15 2.08133E+02-3.11544E+01-3.40132E+02-1.88693E-02 1.63531E-02 1.08067E+03
 -1        16-2.10436E+03-3.53352E+03-9.36068E+03 1.10329E-03 4.23100E-03 1.62789E+02
 -1        17 2.24442E+02 1.60431E+01-1.78717E+02 1.24755E-03 8.25371E-03 9.67031E+02
 -1        18-1.27238E+03-2.18104E+03-5.87126E+03 1.82115E-02-2.55006E-03 2.36158E+02
 -1        19 2.24590E+02 1.60694E+01-1.78777E+02 1.24754E-03 8.25371E-03 9.66995E+02
 -1        20-1.27200E+03-2.18088E+03-5.87108E+03 1.82115E-02-2.55006E-03 2.36124E+02
 -1        21 2.11251E+02 4.79271E+01-4.90403E+01 1.75197E-03-1.02741E-03 8.28496E+02
 -1        22-5.12705E+02-9.98672E+02-2.78184E+03 1.53785E-02 3.37640E-03 3.76816E+02
 -1        23 2.11332E+02 4.79259E+01-4.91221E+01 1.75197E-03-1.02741E-03 8.28497E+02
 -1        24-5.12382E+02-9.98512E+02-2.78163E+03 1.53786E-02 3.37640E-03 3.76836E+02
 -1        25 1.74599E+02 6.64305E+01 5.13442E+01 4.02132E-03-5.39757E-03 6.70213E+02
 -1        26 8.13201E+01-4.44045E+01-2.21576E+02 1.81523E-02 6.95716E-03 4.88037E+02
 -1        27 1.74670E+02 6.64414E+01 5.13111E+01 4.02132E-03-5.39757E-03 6.70227E+02
 -1        28 8.15766E+01-4.43096E+01-2.21516E+02 1.81524E-02 6.95716E-03 4.88073E+02
 -1        29 1.31725E+02 7.79590E+01 1.30475E+02-1.67691E-02-5.50265E-03 4.95847E+02
 -1        30 5.22272E+02 6.74818E+02 1.74352E+03 6.45962E-03 6.13414E-04 5.34947E+02
 -1        31 1.31872E+02 7.80106E+01 1.30499E+02-1.67691E-02-5.50264E-03 4.95826E+02
 -1        32 5.22623E+02 6.74906E+02 1.74346E+03 6.45964E-03 6.13412E-04 5.34911E+02
 -1        33 8.86829E+01 8.40445E+01 1.90206E+02-1.61996E-02-8.07745E-03 3.36496E+02
 -1        34 8.11291E+02 1.16351E+03 3.10344E+03 1.99547E-03-1.63764E-02 5.23388E+02
 -1        35 8.88218E+01 8.41002E+01 1.90251E+02-1.61996E-02-8.07745E-03 3.36494E+02
 -1        36 8.11618E+02 1.16361E+03 3.10347E+03 1.99548E-03-1.63763E-02 5.23343E+02
 -1        37 5.89465E+01 8.88754E+01 2.32541E+02 5.42145E-03-9.64321E-03 2.30629E+02
 -1        38 9.94999E+02 1.47876E+03 3.98951E+03 1.35355E-02-1.45211E-02 4.96250E+02
 -1        39 5.90077E+01 8.89124E+01 2.32603E+02 5.42145E-03-9.64321E-03 2.30648E+02
 -1        40 9.95252E+02 1.47890E+03 3.98976E+03 1.35355E-02-1.45211E-02 4.96257E+02
 -1        41 4.83948E+01 9.57851E+01 2.63449E+02 3.11879E-03-5.33772E-03 1.81024E+02
 -1        42 1.12876E+03 1.70336E+03 4.62122E+03 1.35999E-02-1.34062E-03 4.79616E+02
 -1        43 4.84661E+01 9.58339E+01 2.63538E+02 3.11879E-03-5.33772E-03 1.81042E+02
 -1        44 1.12909E+03 1.70357E+03 4.62159E+03 1.35999E-02-1.34062E-03 4.79656E+02
 -1        45 3.83203E+01 1.02902E+02 2.95860E+02 1.43029E-03-1.78707E-03 1.36443E+02
 -1        46 1.21932E+03 1.87598E+03 5.12173E+03 1.78311E-02 1.20727E-02 4.45549E+02
 -1        47 3.84501E+01 1.02973E+02 2.95967E+02 1.43029E-03-1.78708E-03 1.36435E+02
 -1        48 1.21965E+03 1.87613E+03 5.12189E+03 1.78311E-02 1.20727E-02 4.45564E+02
 -1        49 1.93641E+01 1.09697E+02 3.37080E+02-2.02440E-02 2.46232E-03 5.22347E+01
 -1        50 1.25078E+03 1.97365E+03 5.42608E+03-6.19911E-03 3.51817E-03 3.57787E+02
 -1        51 1.93377E+01 1.09719E+02 3.37178E+02-2.02440E-02 2.46232E-03 5.22086E+01
 -1        52 1.25097E+03 1.97369E+03 5.42601E+03-6.19911E-03 3.51817E-03 3.57709E+02
 -1        53 1.03692E+01 1.21242E+02 3.85069E+02-9.82590E-03 1.07654E-02-5.55837E+01
 -1        54 1.21994E+03 1.95725E+03 5.40101E+03-5.90706E-03-4.56376E-03 2.29881E+02
 -1        55 1.03514E+01 1.21264E+02 3.85159E+02-9.82590E-03 1.07654E-02-5.55837E+01
 -1        56 1.22014E+03 1.95740E+03 5.40130E+03-5.90707E-03-4.56376E-03 2.29852E+02
 -1        57 4.38134E+00 1.31696E+02 4.27491E+02-8.29265E-04 1.23157E-02-1.47511E+02
 -1        58 1.11100E+03 1.80555E+03 4.99042E+03 1.39740E-02 2.53014E-02 1.00963E+02
 -1        59 4.41896E+00 1.31671E+02 4.27365E+02-8.29262E-04 1.23157E-02-1.47435E+02
 -1        60 1.11139E+03 1.80576E+03 4.99072E+03 1.39740E-02 2.53014E-02 1.01096E+02
 -1        61-4.03709E+00 1.35037E+02 4.49340E+02-5.94374E-03-4.39412E-03-2.06042E+02
 -1        62 9.35984E+02 1.54677E+03 4.28162E+03 1.28477E-02 1.26649E-02-1.82993E+00
 -1        63-4.07313E+00 1.34985E+02 4.49200E+02-5.94375E-03-4.39412E-03-2.06010E+02
 -1        64 9.36374E+02 1.54694E+03 4.28179E+03 1.28477E-02 1.26649E-02-1.74288E+00
 -1        65 1.13412E+01 1.38036E+02 4.46241E+02 8.19004E-04-1.76428E-03-2.31772E+02
 -1        66 7.53525E+02 1.24125E+03 3.42419E+03 1.12032E-02 2.71082E-02-6.84404E+01
 -1        67 1.13612E+01 1.38077E+02 4.46360E+02 8.19003E-04-1.76428E-03-2.31744E+02
 -1        68 7.53641E+02 1.24124E+03 3.42406E+03 1.12032E-02 2.71082E-02-6.83493E+01
 -1        69 1.94808E+01 1.25832E+02 3.98965E+02-3.15205E-02 1.00310E-02-2.29453E+02
 -1        70 5.74479E+02 9.22953E+02 2.52448E+03-1.26422E-02-5.00080E-03-1.08080E+02
 -1        71 1.92938E+01 1.25739E+02 3.98837E+02-3.15205E-02 1.00310E-02-2.29494E+02
 -1        72 5.74681E+02 9.22932E+02 2.52420E+03-1.26422E-02-5.00079E-03-1.08189E+02
 -1        73 2.25761E+01 1.03254E+02 3.21661E+02-4.81397E-03-7.75823E-03-2.11598E+02
 -1        74 3.44176E+02 5.80077E+02 1.59893E+03 8.48395E-03-1.66364E-02-9.29387E+01
 -1        75 2.25666E+01 1.03212E+02 3.21532E+02-4.81398E-03-7.75822E-03-2.11586E+02
 -1        76 3.44506E+02 5.80240E+02 1.59915E+03 8.48396E-03-1.66365E-02-9.28904E+01
 -1        77 1.22492E+01 6.07014E+01 1.89956E+02-8.89415E-03-5.30511E-03-1.38108E+02
 -1        78 3.72242E+02 3.96693E+02 9.53599E+02 2.16128E-02 3.00852E-03-1.35864E+02
 -1        79 1.22067E+01 6.07087E+01 1.90022E+02-8.89415E-03-5.30511E-03-1.38024E+02
 -1        80 3.72887E+02 3.96976E+02 9.53900E+02 2.16129E-02 3.00852E-03-1.35878E+02
 -1        81 2.84671E+01 4.07869E+01 1.08102E+02 2.18105E-02 2.07150E-03-3.76149E+01
 -1        82-2.32092E+02 6.31984E+01 4.44027E+02-1.08066E-02-1.32217E-02-1.05443E+02
 -1        83 2.87490E+01 4.09450E+01 1.08349E+02 2.18106E-02 2.07150E-03-3.74372E+01
 -1        84-2.32939E+02 6.27542E+01 4.43394E+02-1.08066E-02-1.32217E-02-1.05726E+02
 -1        85 8.96166E+03 8.60260E+03 2.12801E+04 5.47845E-05 7.93515E-05 6.27618E+03
 -1        86 3.00475E+03 5.77235E+03 1.71301E+04 1.28183E-02 3.74781E-04 2.24483E+03
 -1        87 8.96168E+03 8.60260E+03 2.12801E+04 5.47873E-05 7.93510E-05 6.27626E+03
 -1        88 3.00449E+03 5.77227E+03 1.71301E+04 1.28183E-02 3.74780E-04 2.24483E+03
 -1        89 3.45073E+03 4.95603E+03 1.36725E+04-1.42569E-02 9.92155E-03 1.68234E+03
 -1        90 3.45075E+03 4.95611E+03 1.36728E+04-1.42569E-02 9.92157E-03 1.68229E+03
 -1        91 2.36659E+03 3.43625E+03 9.39218E+03-1.18390E-02 3.11695E-02 1.61555E+03
 -1        92 2.36655E+03 3.43629E+03 9.39234E+03-1.18390E-02 3.11695E-02 1.61552E+03
 -1        93 1.59506E+03 2.20312E+03 5.88125E+03 3.31989E-04 2.68714E-02 1.28299E+03
 -1        94 1.59500E+03 2.20303E+03 5.88102E+03 3.31978E-04 2.68714E-02 1.28291E+03
 -1        95 8.36028E+02 1.09296E+03 2.84825E+03 2.14828E-03 2.87997E-03 9.21848E+02
 -1        96 8.35833E+02 1.09277E+03 2.84779E+03 2.14828E-03 2.87996E-03 9.21823E+02
 -1        97 1.88716E+02 1.75446E+02 4.04659E+02 5.75173E-03-1.83594E-02 5.61648E+02
 -1        98 1.88567E+02 1.75329E+02 4.04415E+02 5.75173E-03-1.83593E-02 5.61677E+02
 -1        99-3.16232E+02-5.21825E+02-1.41334E+03-1.21975E-02-1.49817E-02 2.50347E+02
 -1       100-3.16254E+02-5.21781E+02-1.41317E+03-1.21975E-02-1.49817E-02 2.50370E+02
 -1       101-6.74724E+02-1.00126E+03-2.63919E+03-9.60585E-03 4.85656E-03 2.02310E+01
 -1       102-6.74759E+02-1.00123E+03-2.63906E+03-9.60585E-03 4.85656E-03 2.02347E+01
 -1       103-9.08979E+02-1.30996E+03-3.41974E+03 1.17297E-02-1.36408E-03-1.13795E+02
 -1       104-9.09151E+02-1.31007E+03-3.41993E+03 1.17297E-02-1.36408E-03-1.13789E+02
 -1       105-1.05932E+03-1.52133E+03-3.96151E+03 9.26248E-03-1.08863E-02-1.72603E+02
 -1       106-1.05949E+03-1.52143E+03-3.96167E+03 9.26247E-03-1.08863E-02-1.72586E+02
 -1       107-1.17059E+03-1.68375E+03-4.38002E+03 5.78917E-03-9.15021E-03-2.08368E+02
 -1       108-1.17063E+03-1.68374E+03-4.37994E+03 5.78916E-03-9.15021E-03-2.08344E+02
 -1       109-1.23908E+03-1.77276E+03-4.60127E+03 2.31178E-04 2.48411E-03-2.53953E+02
 -1       110-1.23940E+03-1.77283E+03-4.60120E+03 2.31177E-04 2.48411E-03-2.53949E+02
 -1       111-1.21571E+03-1.72996E+03-4.48540E+03 1.92833E-03 1.59904E-02-2.93567E+02
 -1       112-1.21595E+03-1.73006E+03-4.48550E+03 1.92833E-03 1.59904E-02-2.93585E+02
 -1       113-1.11149E+03-1.55571E+03-4.02186E+03 3.54049E-03 1.83071E-03-3.06943E+02
 -1       114-1.11165E+03-1.55581E+03-4.02205E+03 3.54049E-03 1.83071E-03-3.06859E+02
 -1       115-9.53225E+02-1.29280E+03-3.32061E+03 9.89525E-03 2.44995E-03-2.99408E+02
 -1       116-9.53594E+02-1.29298E+03-3.32085E+03 9.89524E-03 2.44995E-03-2.99414E+02
 -1       117-7.32614E+02-9.74782E+02-2.49663E+03 1.37841E-02-7.61029E-03-2.75109E+02
 -1       118-7.32887E+02-9.74897E+02-2.49674E+03 1.37841E-02-7.61029E-03-2.75092E+02
 -1       119-5.21434E+02-6.64164E+02-1.68316E+03 2.24158E-03 3.74802E-03-2.44921E+02
 -1       120-5.22110E+02-6.64432E+02-1.68337E+03 2.24157E-03 3.74802E-03-2.44903E+02
 -1       121-2.80237E+02-3.63592E+02-9.28768E+02 3.95088E-03 1.51087E-03-1.92745E+02
 -1       122-2.80414E+02-3.63670E+02-9.28849E+02 3.95089E-03 1.51087E-03-1.92713E+02
 -1       123-2.82619E+02-2.06902E+02-4.05959E+02 3.07042E-02 2.43486E-03-1.94889E+02
 -1       124-2.83516E+02-2.07318E+02-4.06448E+02 3.07042E-02 2.43484E-03-1.95026E+02
 -1       125 4.04820E+02 1.53999E+02 1.09740E+02-2.91550E-02-1.11431E-02-2.65170E+02
 -1       126 4.05723E+02 1.54313E+02 1.09885E+02-2.91550E-02-1.11430E-02-2.65465E+02
 -3
    1PSTEP                        83          21           3          
  100CL  121 4.10000E-01         126                     1   21           1
 -4  TOSTRAIN    6    1
 -5  EXX         1    4    1    1
 -5  EYY         1    4    2    2
 -5  EZZ         1    4    3    3
 -5  EXY         1    4    1    2
 -5  EYZ         1    4    2    3
 -5  EZX         1    4    3    1
 -1         1-1.37981E-04-2.09851E-15-3.96583E-02 1.38214E-10-4.78056E-13 1.74730E-02
 -1         2-1.35791E-04 1.09636E-16-1.13875E-03 1.35645E-10-3.52766E-13 1.29181E-02
 -1         3-9.23550E-06-1.24045E-15-8.70696E-04-4.70636E-09 2.08095E-08 3.71100E-03
 -1         4 9.82247E-03 1.02544E-14-3.62058E-02 7.63689E-08 4.10321E-08 5.16732E-03
 -1         5-1.37981E-04-2.09851E-15-3.96578E-02 1.38201E-10-4.78056E-13 1.74735E-02
 -1         6-1.35790E-04 1.09636E-16-1.13850E-03 1.35644E-10-3.52766E-13 1.29180E-02
 -1         7-9.02507E-06-1.24045E-15-8.70458E-04-4.70636E-09 2.08095E-08 3.71092E-03
 -1         8 9.82344E-03 1.02544E-14-3.62055E-02 7.63690E-08 4.10321E-08 5.16742E-03
 -1         9-1.03442E-04 1.04926E-14-4.25663E-04-6.55256E-08 3.87707E-08 4.22755E-03
 -1        10 5.53471E-03 5.50142E-15-2.80082E-02-1.24993E-08 6.12775E-08 2.83557E-03
 -1        11-1.03222E-04 1.04926E-14-4.25491E-04-6.55256E-08 3.87708E-08 4.22748E-03
 -1        12 5.53535E-03 5.50142E-15-2.80084E-02-1.24993E-08 6.12775E-08 2.83549E-03
 -1        13-8.36476E-05 1.12967E-14-9.85878E-05-6.64669E-08 4.72176E-08 3.61679E-03
 -1        14 4.21784E-03-2.40476E-15-1.93446E-02 2.07602E-09 1.44926E-08 2.87292E-03
 -1        15-8.33425E-05 1.12967E-14-9.86456E-05-6.64670E-08 4.72176E-08 3.61676E-03
 -1        16 4.21867E-03-2.40476E-15-1.93450E-02 2.07601E-09 1.44925E-08 2.87295E-03
 -1        17-1.14273E-04-7.13292E-16 1.63925E-04 8.63129E-10 2.71431E-08 3.20794E-03
 -1        18 2.54924E-03 5.08578E-15-1.19253E-02 5.98047E-08-1.72928E-09 2.45482E-03
 -1        19-1.13860E-04-7.13292E-16 1.63629E-04 8.63116E-10 2.71431E-08 3.20790E-03
 -1        20 2.54995E-03 5.08578E-15-1.19253E-02 5.98047E-08-1.72926E-09 2.45479E-03
 -1        21-1.54487E-04-3.78045E-16 3.56603E-04 6.05126E-09-2.64847E-09 2.71343E-03
 -1        22 1.16417E-03 4.47123E-15-5.47154E-03 4.82740E-08 1.69381E-08 2.08857E-03
 -1        23-1.54232E-04-3.78045E-16 3.56345E-04 6.05127E-09-2.64847E-09 2.71349E-03
 -1        24 1.16468E-03 4.47123E-15-5.47136E-03 4.82740E-08 1.69381E-08 2.08868E-03
 -1        25-1.99205E-04-6.81339E-16 4.86085E-04 1.51754E-08-1.58290E-08 2.15906E-03
 -1        26 2.62212E-07 6.41440E-15-1.88329E-04 5.57033E-08 2.96183E-08 1.66085E-03
 -1        27-1.99027E-04-6.81339E-16 4.85955E-04 1.51754E-08-1.58290E-08 2.15915E-03
 -1        28 7.48563E-07 6.41440E-15-1.88404E-04 5.57033E-08 2.96183E-08 1.66104E-03
 -1        29-2.25986E-04 4.69061E-15 5.62065E-04-5.18753E-08-2.42688E-08 1.56300E-03
 -1        30-8.63974E-04-1.87023E-15 3.79718E-03 2.05991E-08 4.49497E-09 1.20586E-03
 -1        31-2.25662E-04 4.69061E-15 5.61965E-04-5.18753E-08-2.42688E-08 1.56298E-03
 -1        32-8.63104E-04-1.87023E-15 3.79669E-03 2.05991E-08 4.49497E-09 1.20590E-03
 -1        33-2.51442E-04 5.11336E-15 6.11210E-04-4.91962E-08-3.21279E-08 1.02500E-03
 -1        34-1.45019E-03 3.53025E-15 6.51255E-03 1.26773E-08-5.16666E-08 7.91021E-04
 -1        35-2.51170E-04 5.11336E-15 6.11178E-04-4.91962E-08-3.21280E-08 1.02503E-03
 -1        36-1.44945E-03 3.53025E-15 6.51228E-03 1.26773E-08-5.16666E-08 7.90991E-04
 -1        37-2.76800E-04 1.43872E-15 6.54782E-04 2.09583E-08-2.92247E-08 6.69934E-04
 -1        38-1.82376E-03 7.43291E-15 8.26349E-03 4.88356E-08-4.16775E-08 5.15862E-04
 -1        39-2.76737E-04 1.43872E-15 6.54878E-04 2.09583E-08-2.92247E-08 6.69995E-04
 -1        40-1.82343E-03 7.43291E-15 8.26380E-03 4.88356E-08-4.16775E-08 5.15885E-04
 -1        41-2.93710E-04 4.49638E-16 6.99266E-04 1.18453E-08-1.62047E-08 5.05902E-04
 -1        42-2.08627E-03 2.95057E-15 9.50931E-03 4.43596E-08 1.32172E-10 3.87078E-04
 -1        43-2.93645E-04 4.49638E-16 6.99411E-04 1.18453E-08-1.62048E-08 5.05954E-04
 -1        44-2.08587E-03 2.95057E-15 9.50982E-03 4.43596E-08 1.32172E-10 3.87193E-04
 -1        45-3.20025E-04-1.61556E-15 7.54384E-04 5.17540E-09-5.33407E-09 3.59668E-04
 -1        46-2.31925E-03 6.65818E-15 1.04989E-02 5.40565E-08 4.37761E-08 2.69201E-04
 -1        47-3.19830E-04-1.61556E-15 7.54495E-04 5.17540E-09-5.33407E-09 3.59649E-04
 -1        48-2.31866E-03 6.65818E-15 1.04990E-02 5.40566E-08 4.37761E-08 2.69300E-04
 -1        49-3.56704E-04 6.66869E-15 8.19315E-04-6.62393E-08 2.62089E-09 8.43143E-05
 -1        50-2.48027E-03-7.27673E-16 1.10883E-02-2.09245E-08 9.57940E-09 5.30077E-05
 -1        51-3.56831E-04 6.66869E-15 8.19538E-04-6.62393E-08 2.62090E-09 8.41987E-05
 -1        52-2.47973E-03-7.27673E-16 1.10880E-02-2.09245E-08 9.57941E-09 5.28323E-05
 -1        53-3.70494E-04 3.51349E-15 8.83582E-04-3.43168E-08 3.25741E-08-2.63650E-04
 -1        54-2.46538E-03-1.65815E-15 1.10017E-02-1.80618E-08-1.59790E-08-2.10889E-04
 -1        55-3.70619E-04 3.51349E-15 8.83800E-04-3.43168E-08 3.25741E-08-2.63676E-04
 -1        56-2.46518E-03-1.65815E-15 1.10021E-02-1.80618E-08-1.59790E-08-2.11001E-04
 -1        57-3.84951E-04 1.90491E-15 9.45435E-04-5.06588E-09 3.98406E-08-5.57539E-04
 -1        58-2.27652E-03 1.35713E-14 1.01480E-02 4.03737E-08 8.38166E-08-4.28989E-04
 -1        59-3.84775E-04 1.90491E-15 9.45146E-04-5.06587E-09 3.98406E-08-5.57264E-04
 -1        60-2.27598E-03 1.35713E-14 1.01483E-02 4.03737E-08 8.38166E-08-4.28555E-04
 -1        61-4.02732E-04-1.00146E-15 9.80631E-04-1.85636E-08-1.52165E-08-7.40670E-04
 -1        62-1.97296E-03 3.97299E-15 8.71112E-03 3.95786E-08 4.28791E-08-5.61746E-04
 -1        63-4.02686E-04-1.00146E-15 9.80357E-04-1.85636E-08-1.52165E-08-7.40549E-04
 -1        64-1.97226E-03 3.97299E-15 8.71115E-03 3.95786E-08 4.28791E-08-5.61424E-04
 -1        65-3.56176E-04-3.66547E-15 9.49970E-04 2.90946E-09-5.55002E-09-8.11954E-04
 -1        66-1.55827E-03 1.20188E-14 6.96059E-03 3.24626E-08 8.89146E-08-6.04849E-04
 -1        67-3.56257E-04-3.66547E-15 9.50230E-04 2.90946E-09-5.55002E-09-8.11875E-04
 -1        68-1.55791E-03 1.20188E-14 6.96023E-03 3.24627E-08 8.89146E-08-6.04523E-04
 -1        69-2.91981E-04 1.65902E-14 8.35062E-04-1.03637E-07 2.83856E-08-7.91057E-04
 -1        70-1.09992E-03-1.32868E-15 5.11303E-03-4.03643E-08-1.78291E-08-5.97622E-04
 -1        71-2.92264E-04 1.65902E-14 8.34938E-04-1.03637E-07 2.83856E-08-7.91201E-04
 -1        72-1.09916E-03-1.32868E-15 5.11218E-03-4.03643E-08-1.78291E-08-5.97910E-04
 -1        73-2.14409E-04-4.54174E-16 6.61075E-04-1.47404E-08-2.57463E-08-7.20235E-04
 -1        74-7.40817E-04 4.57632E-15 3.26037E-03 2.94963E-08-5.27693E-08-4.47684E-04
 -1        75-2.14308E-04-4.54174E-16 6.60794E-04-1.47404E-08-2.57463E-08-7.20184E-04
 -1        76-7.40286E-04 4.57632E-15 3.26055E-03 2.94963E-08-5.27693E-08-4.47514E-04
 -1        77-1.25793E-04-1.99764E-15 3.88523E-04-2.83001E-08-1.82305E-08-4.67481E-04
 -1        78-4.74895E-05 4.75464E-15 1.76932E-03 6.98368E-08 1.22142E-08-5.04304E-04
 -1        79-1.25971E-04-1.99764E-15 3.88732E-04-2.83001E-08-1.82305E-08-4.67223E-04
 -1        80-4.63119E-05 4.75464E-15 1.76937E-03 6.98368E-08 1.22141E-08-5.04310E-04
 -1        81-3.28698E-05 3.33437E-15 2.10200E-04 7.06184E-08 9.17052E-09-1.30394E-04
 -1        82-9.35663E-04-3.80260E-16 1.20930E-03-3.36787E-08-4.41090E-08-4.16047E-04
 -1        83-3.25107E-05 3.33437E-15 2.10529E-04 7.06184E-08 9.17053E-09-1.29814E-04
 -1        84-9.36914E-04-3.80260E-16 1.20862E-03-3.36787E-08-4.41090E-08-4.16987E-04
 -1        85-1.33601E-04-4.41452E-16 3.85415E-02 7.60331E-11-2.26829E-13 1.81847E-02
 -1        86-9.84094E-03 9.93470E-16 3.52576E-02 4.14296E-08 2.67946E-09 5.07577E-03
 -1        87-1.33600E-04-4.41452E-16 3.85416E-02 7.60369E-11-2.26829E-13 1.81849E-02
 -1        88-9.84149E-03 9.93470E-16 3.52577E-02 4.14296E-08 2.67945E-09 5.07574E-03
 -1        89-5.74159E-03 4.04852E-15 2.75625E-02-4.83727E-08 2.79694E-08 2.85742E-03
 -1        90-5.74179E-03 4.04852E-15 2.75631E-02-4.83727E-08 2.79695E-08 2.85723E-03
 -1        91-4.38514E-03 2.04661E-14 1.94441E-02-4.82201E-08 9.48760E-08 2.87353E-03
 -1        92-4.38535E-03 2.04661E-14 1.94445E-02-4.82201E-08 9.48761E-08 2.87337E-03
 -1        93-2.77778E-03 1.21948E-14 1.23994E-02-8.95809E-09 8.55789E-08 2.46962E-03
 -1        94-2.77767E-03 1.21948E-14 1.23989E-02-8.95815E-09 8.55789E-08 2.46944E-03
 -1        95-1.47314E-03-1.42736E-15 6.23226E-03 5.77459E-09 1.00342E-08 2.10618E-03
 -1        96-1.47314E-03-1.42736E-15 6.23141E-03 5.77460E-09 1.00342E-08 2.10621E-03
 -1        97-3.98673E-04 5.92046E-15 1.16341E-03 2.60139E-08-5.68829E-08 1.67892E-03
 -1        98-3.98803E-04 5.92046E-15 1.16303E-03 2.60139E-08-5.68829E-08 1.67905E-03
 -1        99 4.12002E-04 6.37134E-15-2.66784E-03-3.34047E-08-5.32865E-08 1.22101E-03
 -1       100 4.11780E-04 6.37134E-15-2.66743E-03-3.34048E-08-5.32865E-08 1.22101E-03
 -1       101 9.47303E-04 2.88027E-16-5.27222E-03-3.28976E-08 1.21464E-08 8.04508E-04
 -1       102 9.47107E-04 2.88027E-16-5.27191E-03-3.28976E-08 1.21464E-08 8.04460E-04
 -1       103 1.27016E-03 1.58102E-15-6.92369E-03 3.84260E-08-2.93593E-10 5.27099E-04
 -1       104 1.26995E-03 1.58102E-15-6.92396E-03 3.84260E-08-2.93575E-10 5.27127E-04
 -1       105 1.49885E-03 4.00547E-15-8.06045E-03 3.35658E-08-3.25342E-08 3.98578E-04
 -1       106 1.49859E-03 4.00547E-15-8.06062E-03 3.35658E-08-3.25342E-08 3.98627E-04
 -1       107 1.67920E-03 2.04333E-15-8.93781E-03 2.14858E-08-2.82330E-08 2.84696E-04
 -1       108 1.67900E-03 2.04333E-15-8.93756E-03 2.14858E-08-2.82331E-08 2.84734E-04
 -1       109 1.76686E-03-1.85840E-15-9.40727E-03 3.93510E-11 8.18680E-09 6.78101E-05
 -1       110 1.76607E-03-1.85840E-15-9.40678E-03 3.93510E-11 8.18680E-09 6.77190E-05
 -1       111 1.72439E-03 4.52761E-15-9.18152E-03 2.58120E-09 5.29299E-08-2.00493E-04
 -1       112 1.72394E-03 4.52761E-15-9.18152E-03 2.58118E-09 5.29299E-08-2.00585E-04
 -1       113 1.50662E-03-3.30501E-16-8.21626E-03 1.11340E-08 6.81643E-09-4.23708E-04
 -1       114 1.50643E-03-3.30501E-16-8.21651E-03 1.11340E-08 6.81643E-09-4.23426E-04
 -1       115 1.16749E-03 1.04393E-15-6.74767E-03 3.17284E-08 9.69932E-09-5.74861E-04
 -1       116 1.16689E-03 1.04393E-15-6.74785E-03 3.17284E-08 9.69932E-09-5.74904E-04
 -1       117 8.45916E-04 4.03764E-15-5.05755E-03 4.58789E-08-2.28251E-08-6.37979E-04
 -1       118 8.45400E-04 4.03764E-15-5.05753E-03 4.58789E-08-2.28251E-08-6.37950E-04
 -1       119 5.15962E-04-3.83745E-15-3.38820E-03 6.77405E-09 1.25259E-08-6.46694E-04
 -1       120 5.14636E-04-3.83745E-15-3.38803E-03 6.77404E-09 1.25259E-08-6.46699E-04
 -1       121 3.12000E-04-9.40374E-16-1.88580E-03 1.26528E-08 5.38909E-09-5.49609E-04
 -1       122 3.11671E-04-9.40374E-16-1.88581E-03 1.26528E-08 5.38909E-09-5.49517E-04
 -1       123-2.04097E-04 9.23937E-15-6.91821E-04 9.94839E-08 1.14208E-08-6.18875E-04
 -1       124-2.05631E-04 9.23937E-15-6.92089E-04 9.94838E-08 1.14208E-08-6.19371E-04
 -1       125 8.69924E-04 2.62210E-15-2.02370E-04-9.34302E-08-3.94884E-08-8.25722E-04
 -1       126 8.71893E-04 2.62210E-15-2.02981E-04-9.34303E-08-3.94883E-08-8.26589E-04
 -3
    1PSTEP                        84          21           3          
  100CL  121 4.10000E-01         126                     1   21           1
 -4  ERROR       1    1
 -5  STR(%)      1    1    0    0
 -1         1 6.08854E+01
 -1         2 6.65043E+01
 -1         3 6.65043E+01
 -1         4 6.08854E+01
 -1         5 6.08854E+01
 -1         6 6.65043E+01
 -1         7 6.65043E+01
 -1         8 6.08854E+01
 -1         9 6.40901E+01
 -1        10 6.05268E+01
 -1        11 6.40901E+01
 -1        12 6.05268E+01
 -1        13 6.32958E+01
 -1        14 6.05268E+01
 -1        15 6.32958E+01
 -1        16 6.05268E+01
 -1        17 6.02648E+01
 -1        18 5.98284E+01
 -1        19 6.02648E+01
 -1        20 5.98284E+01
 -1        21 5.53537E+01
 -1        22 5.53537E+01
 -1        23 5.53537E+01
 -1        24 5.53537E+01
 -1        25 5.98820E+01
 -1        26 3.05044E+01
 -1        27 5.98820E+01
 -1        28 3.05044E+01
 -1        29 6.47343E+01
 -1        30 5.02206E+01
 -1        31 6.47343E+01
 -1        32 5.02206E+01
 -1        33 6.95796E+01
 -1        34 5.50030E+01
 -1        35 6.95796E+01
 -1        36 5.50030E+01
 -1        37 6.95796E+01
 -1        38 5.53990E+01
 -1        39 6.95796E+01
 -1        40 5.53990E+01
 -1        41 6.80056E+01
 -1        42 5.54258E+01
 -1        43 6.80056E+01
 -1        44 5.54258E+01
 -1        45 6.71348E+01
 -1        46 5.54258E+01
 -1        47 6.71348E+01
 -1        48 5.54258E+01
 -1        49 6.60553E+01
 -1        50 5.48475E+01
 -1        51 6.60553E+01
 -1        52 5.48475E+01
 -1        53 6.82783E+01
 -1        54 5.43386E+01
 -1        55 6.82783E+01
 -1        56 5.43386E+01
 -1        57 7.15420E+01
 -1        58 5.43386E+01
 -1        59 7.15420E+01
 -1        60 5.43386E+01
 -1        61 7.52466E+01
 -1        62 5.35363E+01
 -1        63 7.52466E+01
 -1        64 5.35363E+01
 -1        65 7.79788E+01
 -1        66 5.16967E+01
 -1        67 7.79788E+01
 -1        68 5.16967E+01
 -1        69 7.79788E+01
 -1        70 4.89432E+01
 -1        71 7.79788E+01
 -1        72 4.89432E+01
 -1        73 7.75582E+01
 -1        74 4.59825E+01
 -1        75 7.75582E+01
 -1        76 4.59825E+01
 -1        77 6.79165E+01
 -1        78 6.79165E+01
 -1        79 6.79165E+01
 -1        80 6.79165E+01
 -1        81 6.79165E+01
 -1        82 6.79165E+01
 -1        83 6.79165E+01
 -1        84 6.79165E+01
 -1        85 6.65043E+01
 -1        86 6.65043E+01
 -1        87 6.65043E+01
 -1        88 6.65043E+01
 -1        89 6.40901E+01
 -1        90 6.40901E+01
 -1        91 6.32958E+01
 -1        92 6.32958E+01
 -1        93 6.02648E+01
 -1        94 6.02648E+01
 -1        95 5.30130E+01
 -1        96 5.30130E+01
 -1        97 5.98820E+01
 -1        98 5.98820E+01
 -1        99 6.47343E+01
 -1       100 6.47343E+01
 -1       101 6.95796E+01
 -1       102 6.95796E+01
 -1       103 6.95796E+01
 -1       104 6.95796E+01
 -1       105 6.80056E+01
 -1       106 6.80056E+01
 -1       107 6.71348E+01
 -1       108 6.71348E+01
 -1       109 6.60553E+01
 -1       110 6.60553E+01
 -1       111 6.82783E+01
 -1       112 6.82783E+01
 -1       113 7.15420E+01
 -1       114 7.15420E+01
 -1       115 7.52466E+01
 -1       116 7.52466E+01
 -1       117 7.79788E+01
 -1       118 7.79788E+01
 -1       119 7.79788E+01
 -1       120 7.79788E+01
 -1       121 7.75582E+01
 -1       122 7.75582E+01
 -1       123 5.44342E+01
 -1       124 5.44342E+01
 -1       125 3.45495E+01
 -1       126 3.45495E+01
 -3
    1PSTEP                        85          22           3          
  100CL  122 4.20000E-01         126                     1   22           1
 -4  DISP        4    1
 -5  D1          1    2    1    0
 -5  D2          1    2    2    0
 -5  D3          1    2    3    0
 -5  ALL         1    2    0    0    1ALL
 -1         1 0.00000E+00 0.00000E+00 0.00000E+00
 -1         2 0.00000E+00 0.00000E+00 0.00000E+00
 -1         3 1.31394E-03 0.00000E+00-4.91013E-05
 -1         4 1.76687E-03 0.00000E+00-2.07439E-03
 -1         5 0.00000E+00 0.00000E+00 0.00000E+00
 -1         6 0.00000E+00 0.00000E+00 0.00000E+00
 -1         7 1.31396E-03 0.00000E+00-4.90930E-05
 -1         8 1.76686E-03 0.00000E+00-2.07441E-03
 -1         9 4.75501E-03 0.00000E+00-1.69684E-04
 -1        10 4.89356E-03 0.00000E+00-3.85813E-03
 -1        11 4.75502E-03 0.00000E+00-1.69680E-04
 -1        12 4.89358E-03 0.00000E+00-3.85816E-03
 -1        13 9.50195E-03 0.00000E+00-3.85599E-04
 -1        14 9.47142E-03 0.00000E+00-5.25597E-03
 -1        15 9.50196E-03 0.00000E+00-3.85593E-04
 -1        16 9.47144E-03 0.00000E+00-5.25598E-03
 -1        17 1.51847E-02 0.00000E+00-6.89200E-04
 -1        18 1.49875E-02 0.00000E+00-6.34361E-03
 -1        19 1.51847E-02 0.00000E+00-6.89185E-04
 -1        20 1.49875E-02 0.00000E+00-6.34360E-03
 -1        21 2.14197E-02 0.00000E+00-1.05231E-03
 -1        22 2.11037E-02 0.00000E+00-7.15334E-03
 -1        23 2.14197E-02 0.00000E+00-1.05230E-03
 -1        24 2.11037E-02 0.00000E+00-7.15333E-03
 -1        25 2.79077E-02 0.00000E+00-1.44486E-03
 -1        26 2.75152E-02 0.00000E+00-7.71428E-03
 -1        27 2.79077E-02 0.00000E+00-1.44486E-03
 -1        28 2.75152E-02 0.00000E+00-7.71428E-03
 -1        29 3.43957E-02 0.00000E+00-1.83540E-03
 -1        30 3.39657E-02 0.00000E+00-8.04960E-03
 -1        31 3.43957E-02 0.00000E+00-1.83539E-03
 -1        32 3.39657E-02 0.00000E+00-8.04960E-03
 -1        33 4.06820E-02 0.00000E+00-2.19931E-03
 -1        34 4.02484E-02 0.00000E+00-8.18960E-03
 -1        35 4.06820E-02 0.00000E+00-2.19929E-03
 -1        36 4.02484E-02 0.00000E+00-8.18959E-03
 -1        37 4.66297E-02 0.00000E+00-2.52236E-03
 -1        38 4.62161E-02 0.00000E+00-8.17278E-03
 -1        39 4.66297E-02 0.00000E+00-2.52235E-03
 -1        40 4.62161E-02 0.00000E+00-8.17278E-03
 -1        41 5.21602E-02 0.00000E+00-2.79809E-03
 -1        42 5.17791E-02 0.00000E+00-8.03454E-03
 -1        43 5.21603E-02 0.00000E+00-2.79809E-03
 -1        44 5.17792E-02 0.00000E+00-8.03454E-03
 -1        45 5.72252E-02 0.00000E+00-3.02506E-03
 -1        46 5.68829E-02 0.00000E+00-7.80043E-03
 -1        47 5.72252E-02 0.00000E+00-3.02506E-03
 -1        48 5.68829E-02 0.00000E+00-7.80043E-03
 -1        49 6.17863E-02 0.00000E+00-3.20483E-03
 -1        50 6.14866E-02 0.00000E+00-7.49278E-03
 -1        51 6.17863E-02 0.00000E+00-3.20484E-03
 -1        52 6.14866E-02 0.00000E+00-7.49278E-03
 -1        53 6.58244E-02 0.00000E+00-3.34121E-03
 -1        54 6.55689E-02 0.00000E+00-7.14251E-03
 -1        55 6.58244E-02 0.00000E+00-3.34123E-03
 -1        56 6.55689E-02 0.00000E+00-7.14249E-03
 -1        57 6.93585E-02 0.00000E+00-3.44068E-03
 -1        58 6.91455E-02 0.00000E+00-6.78620E-03
 -1        59 6.93585E-02 0.00000E+00-3.44071E-03
 -1        60 6.91455E-02 0.00000E+00-6.78622E-03
 -1        61 7.24402E-02 0.00000E+00-3.51196E-03
 -1        62 7.22674E-02 0.00000E+00-6.45108E-03
 -1        63 7.24402E-02 0.00000E+00-3.51196E-03
 -1        64 7.22674E-02 0.00000E+00-6.45109E-03
 -1        65 7.51260E-02 0.00000E+00-3.56203E-03
 -1        66 7.49888E-02 0.00000E+00-6.15961E-03
 -1        67 7.51260E-02 0.00000E+00-3.56202E-03
 -1        68 7.49888E-02 0.00000E+00-6.15963E-03
 -1        69 7.74932E-02 0.00000E+00-3.59742E-03
 -1        70 7.73889E-02 0.00000E+00-5.93536E-03
 -1        71 7.74933E-02 0.00000E+00-3.59743E-03
 -1        72 7.73889E-02 0.00000E+00-5.93537E-03
 -1        73 7.96457E-02 0.00000E+00-3.62521E-03
 -1        74 7.95669E-02 0.00000E+00-5.79263E-03
 -1        75 7.96457E-02 0.00000E+00-3.62520E-03
 -1        76 7.95669E-02 0.00000E+00-5.79260E-03
 -1        77 8.16870E-02 0.00000E+00-3.65057E-03
 -1        78 8.16435E-02 0.00000E+00-5.73754E-03
 -1        79 8.16870E-02 0.00000E+00-3.65057E-03
 -1        80 8.16434E-02 0.00000E+00-5.73756E-03
 -1        81 8.37287E-02 0.00000E+00-3.68613E-03
 -1        82 8.36417E-02 0.00000E+00-5.72340E-03
 -1        83 8.37286E-02 0.00000E+00-3.68614E-03
 -1        84 8.36418E-02 0.00000E+00-5.72338E-03
 -1        85 0.00000E+00 0.00000E+00 0.00000E+00
 -1        86 1.86677E-03 0.00000E+00 1.93129E-03
 -1        87 0.00000E+00 0.00000E+00 0.00000E+00
 -1        88 1.86674E-03 0.00000E+00 1.93129E-03
 -1        89 5.19232E-03 0.00000E+00 3.46342E-03
 -1        90 5.19230E-03 0.00000E+00 3.46342E-03
 -1        91 9.96853E-03 0.00000E+00 4.43269E-03
 -1        92 9.96851E-03 0.00000E+00 4.43267E-03
 -1        93 1.56533E-02 0.00000E+00 4.92910E-03
 -1        94 1.56533E-02 0.00000E+00 4.92909E-03
 -1        95 2.18772E-02 0.00000E+00 5.02902E-03
 -1        96 2.18771E-02 0.00000E+00 5.02903E-03
 -1        97 2.83336E-02 0.00000E+00 4.82073E-03
 -1        98 2.83336E-02 0.00000E+00 4.82076E-03
 -1        99 3.47737E-02 0.00000E+00 4.38639E-03
 -1       100 3.47737E-02 0.00000E+00 4.38642E-03
 -1       101 4.10019E-02 0.00000E+00 3.80520E-03
 -1       102 4.10019E-02 0.00000E+00 3.80522E-03
 -1       103 4.68894E-02 0.00000E+00 3.14619E-03
 -1       104 4.68894E-02 0.00000E+00 3.14620E-03
 -1       105 5.23616E-02 0.00000E+00 2.45793E-03
 -1       106 5.23616E-02 0.00000E+00 2.45794E-03
 -1       107 5.73715E-02 0.00000E+00 1.76884E-03
 -1       108 5.73715E-02 0.00000E+00 1.76884E-03
 -1       109 6.18836E-02 0.00000E+00 1.09982E-03
 -1       110 6.18836E-02 0.00000E+00 1.09982E-03
 -1       111 6.58846E-02 0.00000E+00 4.74460E-04
 -1       112 6.58845E-02 0.00000E+00 4.74445E-04
 -1       113 6.93936E-02 0.00000E+00-8.50558E-05
 -1       114 6.93936E-02 0.00000E+00-8.50502E-05
 -1       115 7.24595E-02 0.00000E+00-5.66313E-04
 -1       116 7.24595E-02 0.00000E+00-5.66299E-04
 -1       117 7.51414E-02 0.00000E+00-9.59436E-04
 -1       118 7.51414E-02 0.00000E+00-9.59406E-04
 -1       119 7.75144E-02 0.00000E+00-1.25511E-03
 -1       120 7.75143E-02 0.00000E+00-1.25508E-03
 -1       121 7.96734E-02 0.00000E+00-1.45074E-03
 -1       122 7.96734E-02 0.00000E+00-1.45073E-03
 -1       123 8.17384E-02 0.00000E+00-1.56117E-03
 -1       124 8.17383E-02 0.00000E+00-1.56116E-03
 -1       125 8.37284E-02 0.00000E+00-1.61402E-03
 -1       126 8.37285E-02 0.00000E+00-1.61401E-03
 -3
    1PSTEP                        86          22           3          
  100CL  122 4.20000E-01         126                     1   22           1
 -4  STRESS      6    1
 -5  SXX         1    4    1    1
 -5  SYY         1    4    2    2
 -5  SZZ         1    4    3    3
 -5  SXY         1    4    1    2
 -5  SYZ         1    4    2    3
 -5  SZX         1    4    3    1
 -1         1-9.31688E+03-9.62880E+03-2.09694E+04-3.72704E-05-4.18572E-05 4.73824E+03
 -1         2 3.36333E+00-1.46834E+02-6.73763E+02 3.10675E-05 4.24369E-05 4.02457E+03
 -1         3 9.94344E+01-1.35132E+02-6.10016E+02 6.61869E-03 4.30139E-03 1.13118E+03
 -1         4-3.11341E+03-6.32249E+03-1.69335E+04-7.84841E-03-8.97064E-03 9.23384E+02
 -1         5-9.31698E+03-9.62889E+03-2.09696E+04-3.72731E-05-4.18583E-05 4.73819E+03
 -1         6 3.41026E+00-1.46794E+02-6.73672E+02 3.10674E-05 4.24371E-05 4.02461E+03
 -1         7 9.95015E+01-1.35091E+02-6.09962E+02 6.61870E-03 4.30139E-03 1.13117E+03
 -1         8-3.11378E+03-6.32269E+03-1.69337E+04-7.84840E-03-8.97062E-03 9.23334E+02
 -1         9 1.28540E+02-5.56078E+01-3.96787E+02 6.66319E-03 2.19753E-03 1.30885E+03
 -1        10-3.57011E+03-5.37755E+03-1.36822E+04 1.04935E-02-1.53231E-02 9.97182E+01
 -1        11 1.28746E+02-5.55193E+01-3.96700E+02 6.66320E-03 2.19753E-03 1.30880E+03
 -1        12-3.56998E+03-5.37747E+03-1.36820E+04 1.04935E-02-1.53231E-02 9.96634E+01
 -1        13 1.95419E+02 6.11433E+00-2.05141E+02 8.63511E-03 2.83756E-03 1.12124E+03
 -1        14-2.18534E+03-3.58322E+03-9.44325E+03 9.38403E-03-3.29996E-03 1.67220E+02
 -1        15 1.95675E+02 6.23898E+00-2.04985E+02 8.63512E-03 2.83756E-03 1.12123E+03
 -1        16-2.18522E+03-3.58310E+03-9.44302E+03 9.38403E-03-3.29997E-03 1.67182E+02
 -1        17 2.03608E+02 4.28571E+01-6.98547E+01-1.70195E-03 7.92211E-03 9.81554E+02
 -1        18-1.35029E+03-2.22792E+03-5.94903E+03 7.53431E-03 5.59082E-03 2.25425E+02
 -1        19 2.03949E+02 4.30069E+01-6.96978E+01-1.70195E-03 7.92212E-03 9.81538E+02
 -1        20-1.35006E+03-2.22781E+03-5.94888E+03 7.53432E-03 5.59083E-03 2.25413E+02
 -1        21 1.91930E+02 6.54632E+01 2.80537E+01-5.79901E-03 5.25914E-03 8.27992E+02
 -1        22-5.93419E+02-1.07166E+03-2.94286E+03 1.08315E-02 3.07034E-03 3.53590E+02
 -1        23 1.92375E+02 6.56375E+01 2.81891E+01-5.79902E-03 5.25914E-03 8.27986E+02
 -1        24-5.93096E+02-1.07154E+03-2.94278E+03 1.08315E-02 3.07034E-03 3.53577E+02
 -1        25 1.59990E+02 7.47562E+01 9.36241E+01 2.66318E-03 1.41828E-03 6.80301E+02
 -1        26-1.25346E+00-1.41394E+02-4.62328E+02 1.25287E-02-2.32778E-03 4.70831E+02
 -1        27 1.60325E+02 7.49113E+01 9.38064E+01 2.66318E-03 1.41829E-03 6.80282E+02
 -1        28-1.05279E+00-1.41308E+02-4.62240E+02 1.25288E-02-2.32779E-03 4.70788E+02
 -1        29 1.13218E+02 7.60825E+01 1.43130E+02 5.77252E-03 8.01557E-03 5.26883E+02
 -1        30 4.42860E+02 5.81187E+02 1.50855E+03 6.57638E-03 2.36937E-03 5.42293E+02
 -1        31 1.13465E+02 7.62133E+01 1.43319E+02 5.77253E-03 8.01558E-03 5.26842E+02
 -1        32 4.42931E+02 5.81247E+02 1.50868E+03 6.57638E-03 2.36937E-03 5.42267E+02
 -1        33 7.32252E+01 7.58985E+01 1.79048E+02 2.85859E-03 9.65643E-03 3.76985E+02
 -1        34 7.62610E+02 1.10679E+03 2.96091E+03 1.37157E-02 8.22795E-03 5.55959E+02
 -1        35 7.35994E+01 7.60454E+01 1.79164E+02 2.85860E-03 9.65643E-03 3.76980E+02
 -1        36 7.62864E+02 1.10690E+03 2.96104E+03 1.37157E-02 8.22795E-03 5.55993E+02
 -1        37 4.23995E+01 7.39292E+01 1.99715E+02 8.79993E-03 2.81686E-03 2.55024E+02
 -1        38 9.73049E+02 1.45731E+03 3.93938E+03 2.28553E-02 3.96526E-03 5.30714E+02
 -1        39 4.27909E+01 7.40703E+01 1.99795E+02 8.79995E-03 2.81687E-03 2.55053E+02
 -1        40 9.73342E+02 1.45742E+03 3.93947E+03 2.28554E-02 3.96527E-03 5.30765E+02
 -1        41 1.80661E+01 7.02889E+01 2.09148E+02 2.18852E-02-1.07037E-03 1.68647E+02
 -1        42 1.09751E+03 1.67737E+03 4.56442E+03 3.16044E-02 4.21452E-03 4.88388E+02
 -1        43 1.83974E+01 7.04154E+01 2.09241E+02 2.18852E-02-1.07038E-03 1.68621E+02
 -1        44 1.09767E+03 1.67743E+03 4.56444E+03 3.16044E-02 4.21452E-03 4.88388E+02
 -1        45 1.35137E+00 6.66398E+01 2.12153E+02 4.18975E-03-2.90119E-03 9.68865E+01
 -1        46 1.16443E+03 1.80758E+03 4.94229E+03 1.50362E-02-1.03909E-03 4.28497E+02
 -1        47 1.63593E+00 6.67501E+01 2.12236E+02 4.18976E-03-2.90119E-03 9.67871E+01
 -1        48 1.16459E+03 1.80763E+03 4.94229E+03 1.50362E-02-1.03910E-03 4.28404E+02
 -1        49-6.92273E+00 6.49893E+01 2.14551E+02-8.02792E-03-5.56969E-03 1.86430E+01
 -1        50 1.18060E+03 1.85172E+03 5.07692E+03 5.86323E-04-3.15371E-03 3.41298E+02
 -1        51-6.55835E+00 6.51243E+01 2.14636E+02-8.02794E-03-5.56969E-03 1.86140E+01
 -1        52 1.18082E+03 1.85184E+03 5.07711E+03 5.86322E-04-3.15371E-03 3.41313E+02
 -1        53-1.62515E+01 6.24829E+01 2.16027E+02 2.57023E-03-1.14207E-02-6.12295E+01
 -1        54 1.13289E+03 1.79273E+03 4.92251E+03 1.57007E-02 9.92017E-03 2.33194E+02
 -1        55-1.58731E+01 6.26169E+01 2.16097E+02 2.57023E-03-1.14207E-02-6.11796E+01
 -1        56 1.13313E+03 1.79281E+03 4.92253E+03 1.57008E-02 9.92018E-03 2.33326E+02
 -1        57-2.20554E+01 5.96396E+01 2.13574E+02-4.81179E-03-1.49336E-02-1.24529E+02
 -1        58 1.03256E+03 1.64522E+03 4.51839E+03 3.53758E-03-9.23677E-03 1.28620E+02
 -1        59-2.17612E+01 5.97952E+01 2.13800E+02-4.81180E-03-1.49336E-02-1.24558E+02
 -1        60 1.03267E+03 1.64523E+03 4.51833E+03 3.53758E-03-9.23677E-03 1.28613E+02
 -1        61-1.11643E+01 6.20450E+01 2.12811E+02 5.95845E-03-6.85632E-04-1.74664E+02
 -1        62 9.07360E+02 1.43986E+03 3.94356E+03 3.95510E-03-1.96192E-03 3.46875E+01
 -1        63-1.08279E+01 6.22447E+01 2.13144E+02 5.95846E-03-6.85634E-04-1.74690E+02
 -1        64 9.07297E+02 1.43982E+03 3.94349E+03 3.95510E-03-1.96192E-03 3.46713E+01
 -1        65-1.36929E+01 5.86967E+01 2.06349E+02-4.52785E-03 6.60062E-03-2.21409E+02
 -1        66 7.32924E+02 1.17009E+03 3.20185E+03 4.17562E-04-1.37900E-02-5.07449E+01
 -1        67-1.35371E+01 5.87473E+01 2.06361E+02-4.52785E-03 6.60062E-03-2.21461E+02
 -1        68 7.33027E+02 1.17013E+03 3.20189E+03 4.17570E-04-1.37900E-02-5.08367E+01
 -1        69-1.58690E+01 5.37626E+01 1.93715E+02 1.88556E-02-8.55526E-03-2.42709E+02
 -1        70 5.40969E+02 8.58740E+02 2.34050E+03 1.48910E-02-5.29874E-03-1.10022E+02
 -1        71-1.55257E+01 5.39001E+01 1.93833E+02 1.88557E-02-8.55526E-03-2.42742E+02
 -1        72 5.41033E+02 8.58849E+02 2.34080E+03 1.48910E-02-5.29874E-03-1.09973E+02
 -1        73-3.75442E+00 5.23515E+01 1.78033E+02 4.91133E-03 2.27733E-03-2.24452E+02
 -1        74 3.11980E+02 5.17971E+02 1.42203E+03 8.36667E-03 1.84905E-02-1.00317E+02
 -1        75-3.55442E+00 5.24645E+01 1.78210E+02 4.91133E-03 2.27734E-03-2.24434E+02
 -1        76 3.12014E+02 5.17970E+02 1.42200E+03 8.36666E-03 1.84905E-02-1.00305E+02
 -1        77-1.20997E+00 3.41849E+01 1.14971E+02 1.30862E-02 2.59193E-03-1.41492E+02
 -1        78 3.39542E+02 3.51373E+02 8.34372E+02-1.27201E-02-9.75027E-03-1.42941E+02
 -1        79-1.00636E+00 3.42541E+01 1.15000E+02 1.30862E-02 2.59193E-03-1.41615E+02
 -1        80 3.38960E+02 3.51097E+02 8.34031E+02-1.27201E-02-9.75026E-03-1.42966E+02
 -1        81 1.35111E+01 2.31274E+01 6.41523E+01-1.92250E-02-5.21723E-03-3.89844E+01
 -1        82-2.48356E+02 4.01544E+01 3.83270E+02 2.29368E-02 6.84171E-03-1.07302E+02
 -1        83 1.32797E+01 2.29885E+01 6.39187E+01-1.92250E-02-5.21723E-03-3.91666E+01
 -1        84-2.47299E+02 4.06910E+01 3.84000E+02 2.29368E-02 6.84174E-03-1.07023E+02
 -1        85 9.27896E+03 8.90101E+03 2.20693E+04-6.38795E-05-8.76087E-05 6.46700E+03
 -1        86 3.05621E+03 5.95863E+03 1.77700E+04-1.36380E-02-6.04404E-04 2.32335E+03
 -1        87 9.27894E+03 8.90100E+03 2.20693E+04-6.38751E-05-8.76083E-05 6.46691E+03
 -1        88 3.05661E+03 5.95880E+03 1.77701E+04-1.36381E-02-6.04404E-04 2.32335E+03
 -1        89 3.50187E+03 5.11252E+03 1.41933E+04-9.35551E-03-6.32740E-04 1.75668E+03
 -1        90 3.50215E+03 5.11261E+03 1.41933E+04-9.35553E-03-6.32740E-04 1.75669E+03
 -1        91 2.40849E+03 3.55228E+03 9.76328E+03-1.43245E-02-9.36171E-03 1.68503E+03
 -1        92 2.40891E+03 3.55243E+03 9.76339E+03-1.43245E-02-9.36171E-03 1.68504E+03
 -1        93 1.62640E+03 2.30055E+03 6.18808E+03-2.65319E-02-6.55328E-03 1.32812E+03
 -1        94 1.62693E+03 2.30079E+03 6.18838E+03-2.65320E-02-6.55328E-03 1.32814E+03
 -1        95 8.81613E+02 1.20433E+03 3.18110E+03-3.40628E-02 3.44612E-03 9.55880E+02
 -1        96 8.82296E+02 1.20467E+03 3.18155E+03-3.40629E-02 3.44612E-03 9.55911E+02
 -1        97 2.45603E+02 2.94491E+02 7.46461E+02-1.60635E-02 1.28655E-02 6.01341E+02
 -1        98 2.46086E+02 2.94735E+02 7.46792E+02-1.60636E-02 1.28655E-02 6.01328E+02
 -1        99-2.78940E+02-4.32102E+02-1.15328E+03-1.28407E-02 1.50743E-02 2.92714E+02
 -1       100-2.78576E+02-4.31954E+02-1.15315E+03-1.28407E-02 1.50743E-02 2.92633E+02
 -1       101-6.63108E+02-9.61406E+02-2.51970E+03-2.40778E-02 7.89739E-03 5.13746E+01
 -1       102-6.62586E+02-9.61202E+02-2.51954E+03-2.40779E-02 7.89740E-03 5.13500E+01
 -1       103-9.22261E+02-1.31726E+03-3.43014E+03-1.69216E-02 7.48703E-03-1.08722E+02
 -1       104-9.21708E+02-1.31703E+03-3.42993E+03-1.69216E-02 7.48703E-03-1.08706E+02
 -1       105-1.09147E+03-1.54946E+03-4.02085E+03-2.81756E-03 4.07871E-03-2.00470E+02
 -1       106-1.09098E+03-1.54927E+03-4.02070E+03-2.81757E-03 4.07871E-03-2.00519E+02
 -1       107-1.18844E+03-1.68972E+03-4.38128E+03-1.70286E-02-1.20286E-03-2.53710E+02
 -1       108-1.18804E+03-1.68955E+03-4.38113E+03-1.70287E-02-1.20285E-03-2.53835E+02
 -1       109-1.21288E+03-1.73512E+03-4.50423E+03-3.79532E-02 9.21207E-04-2.88148E+02
 -1       110-1.21228E+03-1.73488E+03-4.50401E+03-3.79533E-02 9.21226E-04-2.88225E+02
 -1       111-1.17942E+03-1.68241E+03-4.36582E+03-2.45917E-02-7.46096E-03-3.05949E+02
 -1       112-1.17882E+03-1.68214E+03-4.36554E+03-2.45918E-02-7.46097E-03-3.05930E+02
 -1       113-1.08744E+03-1.54084E+03-3.99612E+03-1.95215E-02 2.90560E-03-3.04540E+02
 -1       114-1.08705E+03-1.54062E+03-3.99581E+03-1.95216E-02 2.90561E-03-3.04631E+02
 -1       115-9.30057E+02-1.32257E+03-3.43929E+03-1.84727E-02 6.89924E-03-2.92072E+02
 -1       116-9.29478E+02-1.32228E+03-3.43893E+03-1.84728E-02 6.89926E-03-2.92117E+02
 -1       117-7.50413E+02-1.05126E+03-2.72868E+03-1.66756E-02 1.54255E-02-2.80622E+02
 -1       118-7.50125E+02-1.05112E+03-2.72849E+03-1.66757E-02 1.54255E-02-2.80680E+02
 -1       119-5.53157E+02-7.40286E+02-1.90173E+03-1.86911E-02 1.30103E-02-2.64848E+02
 -1       120-5.52393E+02-7.39976E+02-1.90146E+03-1.86912E-02 1.30103E-02-2.64959E+02
 -1       121-3.04635E+02-4.09355E+02-1.05571E+03-6.41904E-03 6.57712E-03-2.07731E+02
 -1       122-3.04435E+02-4.09287E+02-1.05568E+03-6.41904E-03 6.57712E-03-2.07813E+02
 -1       123-2.85582E+02-2.22614E+02-4.55161E+02-3.60000E-02 5.72841E-03-1.93669E+02
 -1       124-2.84550E+02-2.22180E+02-4.54748E+02-3.60001E-02 5.72841E-03-1.93576E+02
 -1       125 3.84099E+02 1.38194E+02 7.77254E+01 3.55262E-02 2.86686E-03-2.59363E+02
 -1       126 3.82987E+02 1.37706E+02 7.72071E+01 3.55261E-02 2.86691E-03-2.58969E+02
 -3
    1PSTEP                        87          22           3          
  100CL  122 4.20000E-01         126                     1   22           1
 -4  TOSTRAIN    6    1
 -5  EXX         1    4    1    1
 -5  EYY         1    4    2    2
 -5  EZZ         1    4    3    3
 -5  EXY         1    4    1    2
 -5  EYZ         1    4    2    3
 -5  EZX         1    4    3    1
 -1         1-1.43726E-04-2.98869E-16-4.01454E-02-1.72876E-10 6.07117E-14 1.76684E-02
 -1         2-1.42233E-04 2.68300E-17-7.78477E-04 9.70592E-11 7.63400E-14 1.31392E-02
 -1         3-2.63354E-04-1.00880E-16-4.56261E-04 2.07631E-08 1.49024E-08 3.75671E-03
 -1         4 9.80014E-03 1.08720E-15-3.66617E-02-2.39952E-08-3.14552E-08 5.21775E-03
 -1         5-1.43729E-04-2.98869E-16-4.01458E-02-1.72881E-10 6.07117E-14 1.76683E-02
 -1         6-1.42233E-04 2.68300E-17-7.78302E-04 9.70592E-11 7.63400E-14 1.31393E-02
 -1         7-2.63236E-04-1.00880E-16-4.56214E-04 2.07631E-08 1.49024E-08 3.75669E-03
 -1         8 9.79960E-03 1.08720E-15-3.66619E-02-2.39952E-08-3.14552E-08 5.21758E-03
 -1         9-3.56446E-04 2.14459E-17 8.23027E-06 2.09360E-08 8.86466E-09 4.33294E-03
 -1        10 5.42399E-03 5.86473E-15-2.82998E-02 3.81036E-08-4.89263E-08 2.91838E-03
 -1        11-3.56038E-04 2.14459E-17 8.20467E-06 2.09360E-08 8.86466E-09 4.33282E-03
 -1        12 5.42420E-03 5.86473E-15-2.82997E-02 3.81037E-08-4.89263E-08 2.91819E-03
 -1        13-2.89941E-04 3.05585E-16 2.67148E-04 2.69010E-08 1.18679E-08 3.69749E-03
 -1        14 4.09909E-03 1.57810E-15-1.94368E-02 3.15376E-08-7.81828E-09 2.94538E-03
 -1        15-2.89494E-04 3.05585E-16 2.67240E-04 2.69010E-08 1.18679E-08 3.69748E-03
 -1        16 4.09915E-03 1.57810E-15-1.94364E-02 3.15376E-08-7.81829E-09 2.94521E-03
 -1        17-2.93179E-04-4.26669E-16 4.57906E-04-8.60819E-09 2.49212E-08 3.20424E-03
 -1        18 2.44287E-03 1.42520E-15-1.20203E-02 2.21923E-08 2.11904E-08 2.46060E-03
 -1        19-2.92548E-04-4.26669E-16 4.57923E-04-8.60819E-09 2.49212E-08 3.20425E-03
 -1        20 2.44324E-03 1.42520E-15-1.20202E-02 2.21923E-08 2.11904E-08 2.46058E-03
 -1        21-2.87245E-04-7.14414E-16 5.64746E-04-2.09070E-08 1.46458E-08 2.67123E-03
 -1        22 1.13972E-03 1.61748E-15-5.76217E-03 3.36709E-08 1.43012E-08 2.06845E-03
 -1        23-2.86376E-04-7.14414E-16 5.64632E-04-2.09070E-08 1.46458E-08 2.67133E-03
 -1        24 1.14038E-03 1.61748E-15-5.76231E-03 3.36709E-08 1.43012E-08 2.06851E-03
 -1        25-2.95054E-04-1.04339E-15 6.17916E-04 7.97850E-09 5.65201E-09 2.16456E-03
 -1        26 4.05994E-05 2.92217E-15-6.48986E-04 4.13634E-08-2.40372E-09 1.67265E-03
 -1        27-2.94463E-04-1.04339E-15 6.17997E-04 7.97850E-09 5.65201E-09 2.16456E-03
 -1        28 4.10000E-05 2.92217E-15-6.49011E-04 4.13634E-08-2.40372E-09 1.67256E-03
 -1        29-3.16002E-04 1.22681E-15 6.44252E-04 1.52918E-08 2.81448E-08 1.64446E-03
 -1        30-8.41153E-04 7.21299E-16 3.36711E-03 2.02186E-08 1.02450E-08 1.27175E-03
 -1        31-3.15595E-04 1.22681E-15 6.44412E-04 1.52918E-08 2.81448E-08 1.64436E-03
 -1        32-8.41094E-04 7.21299E-16 3.36732E-03 2.02186E-08 1.02450E-08 1.27164E-03
 -1        33-3.15784E-04 5.28790E-16 6.40544E-04 5.41369E-09 3.22646E-08 1.14689E-03
 -1        34-1.46093E-03 4.62409E-15 6.27580E-03 4.09622E-08 3.16477E-08 8.91410E-04
 -1        35-3.15053E-04 5.28790E-16 6.40451E-04 5.41370E-09 3.22646E-08 1.14697E-03
 -1        36-1.46050E-03 4.62409E-15 6.27586E-03 4.09622E-08 3.16477E-08 8.91561E-04
 -1        37-3.08340E-04-2.07651E-16 6.21564E-04 2.74047E-08 1.23694E-08 7.48732E-04
 -1        38-1.85790E-03 1.03433E-14 8.20363E-03 7.22436E-08 2.10313E-08 5.84944E-04
 -1        39-3.07562E-04-2.07651E-16 6.21398E-04 2.74047E-08 1.23694E-08 7.48936E-04
 -1        40-1.85736E-03 1.03433E-14 8.20359E-03 7.22437E-08 2.10313E-08 5.85173E-04
 -1        41-3.08371E-04 7.94675E-15 6.03370E-04 7.11452E-08 4.00166E-09 4.70391E-04
 -1        42-2.11527E-03 2.03643E-14 9.42390E-03 1.00548E-07 2.41141E-08 3.68091E-04
 -1        43-3.07703E-04 7.94675E-15 6.03252E-04 7.11452E-08 4.00166E-09 4.70387E-04
 -1        44-2.11491E-03 2.03643E-14 9.42379E-03 1.00548E-07 2.41141E-08 3.68141E-04
 -1        45-3.01581E-04-1.27098E-15 5.79116E-04 1.45033E-08-8.13907E-09 2.43387E-04
 -1        46-2.27008E-03 3.48069E-15 1.01491E-02 4.89076E-08 1.24463E-09 1.92684E-04
 -1        47-3.00959E-04-1.27098E-15 5.78973E-04 1.45033E-08-8.13908E-09 2.43133E-04
 -1        48-2.26967E-03 3.48069E-15 1.01489E-02 4.89077E-08 1.24460E-09 1.92447E-04
 -1        49-2.76712E-04-2.38479E-16 5.46525E-04-2.43903E-08-2.02680E-08-1.99451E-06
 -1        50-2.30621E-03-1.03262E-15 1.03786E-02 2.79731E-09-9.88217E-09 8.05177E-06
 -1        51-2.75956E-04-2.38479E-16 5.46356E-04-2.43904E-08-2.02680E-08-2.00886E-06
 -1        52-2.30589E-03-1.03262E-15 1.03788E-02 2.79731E-09-9.88217E-09 8.11276E-06
 -1        53-2.56736E-04 2.25667E-16 5.16387E-04 1.11904E-08-3.62593E-08-2.53692E-04
 -1        54-2.21485E-03 3.65364E-15 1.00287E-02 4.83797E-08 3.57215E-08-1.82874E-04
 -1        55-2.55978E-04 2.25667E-16 5.16211E-04 1.11904E-08-3.62593E-08-2.53454E-04
 -1        56-2.21441E-03 3.65364E-15 1.00286E-02 4.83797E-08 3.57215E-08-1.82407E-04
 -1        57-2.37273E-04 3.54133E-15 4.86334E-04-1.23668E-08-4.94753E-08-4.51714E-04
 -1        58-2.01788E-03 7.68649E-16 9.18558E-03 1.34614E-08-2.87997E-08-3.36618E-04
 -1        59-2.36808E-04 3.54133E-15 4.86545E-04-1.23668E-08-4.94753E-08-4.51789E-04
 -1        60-2.01757E-03 7.68649E-16 9.18534E-03 1.34614E-08-2.87997E-08-3.36598E-04
 -1        61-1.91772E-04-1.11189E-15 4.53551E-04 1.94854E-08-1.10551E-09-6.05733E-04
 -1        62-1.72677E-03 2.03439E-16 7.99598E-03 1.31779E-08-5.56121E-09-4.59682E-04
 -1        63-1.91325E-04-1.11189E-15 4.53972E-04 1.94854E-08-1.10551E-09-6.05816E-04
 -1        64-1.72684E-03 2.03439E-16 7.99588E-03 1.31779E-08-5.56121E-09-4.59737E-04
 -1        65-1.74699E-04-1.17856E-15 4.24404E-04-1.57673E-08 2.05907E-08-7.51947E-04
 -1        66-1.39359E-03 1.95283E-15 6.48414E-03 3.63951E-09-4.43717E-08-5.72461E-04
 -1        67-1.74337E-04-1.17856E-15 4.24262E-04-1.57673E-08 2.05907E-08-7.52094E-04
 -1        68-1.39335E-03 1.95283E-15 6.48409E-03 3.63954E-09-4.43717E-08-5.72744E-04
 -1        69-1.60016E-04 4.17540E-15 3.90498E-04 6.24985E-08-2.49010E-08-8.16278E-04
 -1        70-9.92843E-04 3.87228E-15 4.72545E-03 4.90832E-08-1.48151E-08-6.22596E-04
 -1        71-1.59345E-04 4.17540E-15 3.90425E-04 6.24986E-08-2.49010E-08-8.16348E-04
 -1        72-9.93003E-04 3.87228E-15 4.72608E-03 4.90832E-08-1.48151E-08-6.22472E-04
 -1        73-1.21979E-04-1.48721E-16 3.47928E-04 1.56450E-08 8.08700E-09-7.51510E-04
 -1        74-6.36227E-04 4.98815E-15 2.88540E-03 2.46054E-08 6.09896E-08-4.77680E-04
 -1        75-1.21701E-04-1.48721E-16 3.48140E-04 1.56450E-08 8.08700E-09-7.51450E-04
 -1        76-6.36120E-04 4.98815E-15 2.88529E-03 2.46054E-08 6.09896E-08-4.77630E-04
 -1        77-7.65395E-05-1.19842E-15 2.24332E-04 4.21533E-08 1.01800E-08-4.73738E-04
 -1        78 1.75639E-06-3.40402E-16 1.52297E-03-4.00120E-08-3.33288E-08-5.27731E-04
 -1        79-7.60734E-05-1.19842E-15 2.24166E-04 4.21533E-08 1.01800E-08-4.74111E-04
 -1        80 7.70473E-07-3.40402E-16 1.52276E-03-4.00120E-08-3.33288E-08-5.27846E-04
 -1        81-2.20576E-05 4.17603E-16 1.22826E-04-6.17402E-08-1.95140E-08-1.32632E-04
 -1        82-9.07651E-04 2.96336E-15 1.08139E-03 7.36359E-08 2.52521E-08-4.30683E-04
 -1        83-2.23056E-05 4.17603E-16 1.22470E-04-6.17401E-08-1.95140E-08-1.33222E-04
 -1        84-9.06027E-04 2.96336E-15 1.08210E-03 7.36360E-08 2.52521E-08-4.29733E-04
 -1        85-1.40740E-04-4.10044E-16 3.99268E-02-9.14573E-11-1.31233E-13 1.86673E-02
 -1        86-1.03268E-02 2.22803E-15 3.65793E-02-4.41373E-08-3.63198E-09 5.18456E-03
 -1        87-1.40738E-04-4.10044E-16 3.99268E-02-9.14514E-11-1.31233E-13 1.86671E-02
 -1        88-1.03261E-02 2.22803E-15 3.65793E-02-4.41373E-08-3.63197E-09 5.18458E-03
 -1        89-6.13688E-03 7.74523E-16 2.86601E-02-3.00828E-08-4.21957E-09 2.91450E-03
 -1        90-6.13627E-03 7.74523E-16 2.86599E-02-3.00828E-08-4.21957E-09 2.91458E-03
 -1        91-4.67898E-03 3.24413E-15 2.02537E-02-4.31558E-08-3.40083E-08 2.92765E-03
 -1        92-4.67814E-03 3.24413E-15 2.02535E-02-4.31559E-08-3.40083E-08 2.92776E-03
 -1        93-3.02923E-03 1.23001E-14 1.30797E-02-8.30244E-08-3.04402E-08 2.46687E-03
 -1        94-3.02834E-03 1.23001E-14 1.30799E-02-8.30245E-08-3.04401E-08 2.46699E-03
 -1        95-1.71421E-03 2.11367E-14 6.95948E-03-1.11169E-07-2.37081E-09 2.07374E-03
 -1        96-1.71313E-03 2.11367E-14 6.95987E-03-1.11169E-07-2.37082E-09 2.07392E-03
 -1        97-6.30708E-04 6.62171E-15 1.91227E-03-5.71567E-08 3.48437E-08 1.68033E-03
 -1        98-6.29926E-04 6.62171E-15 1.91255E-03-5.71568E-08 3.48437E-08 1.68035E-03
 -1        99 2.09149E-04 6.67290E-15-2.07694E-03-4.76376E-08 4.35282E-08 1.27678E-03
 -1       100 2.09905E-04 6.67290E-15-2.07705E-03-4.76376E-08 4.35282E-08 1.27662E-03
 -1       101 8.29359E-04 1.06936E-14-4.98224E-03-8.08544E-08 1.62305E-08 8.90144E-04
 -1       102 8.30395E-04 1.06936E-14-4.98240E-03-8.08545E-08 1.62305E-08 8.90209E-04
 -1       103 1.24122E-03 4.40214E-15-6.92582E-03-5.74512E-08 1.81637E-08 5.81648E-04
 -1       104 1.24224E-03 4.40214E-15-6.92585E-03-5.74512E-08 1.81637E-08 5.81823E-04
 -1       105 1.49853E-03-2.48764E-15-8.18047E-03-1.04659E-08 1.23445E-08 3.63268E-04
 -1       106 1.49951E-03-2.48764E-15-8.18064E-03-1.04659E-08 1.23445E-08 3.63225E-04
 -1       107 1.66692E-03 3.41442E-15-8.95053E-03-5.47617E-08-9.39642E-09 1.82778E-04
 -1       108 1.66775E-03 3.41442E-15-8.95066E-03-5.47618E-08-9.39638E-09 1.82447E-04
 -1       109 1.75279E-03 2.59507E-14-9.23110E-03-1.23304E-07-7.76981E-09-6.88122E-06
 -1       110 1.75397E-03 2.59507E-14-9.23124E-03-1.23304E-07-7.76979E-09-7.02313E-06
 -1       111 1.70138E-03 1.07963E-14-8.95359E-03-7.79293E-08-3.06216E-08-2.00010E-04
 -1       112 1.70245E-03 1.07963E-14-8.95352E-03-7.79294E-08-3.06216E-08-1.99864E-04
 -1       113 1.54334E-03 6.22280E-15-8.18810E-03-6.40019E-08 5.12239E-09-3.55287E-04
 -1       114 1.54396E-03 6.22280E-15-8.18781E-03-6.40019E-08 5.12239E-09-3.55562E-04
 -1       115 1.34322E-03 5.83721E-15-7.05056E-03-6.12716E-08 1.90069E-08-4.70980E-04
 -1       116 1.34419E-03 5.83721E-15-7.05031E-03-6.12717E-08 1.90069E-08-4.71080E-04
 -1       117 1.04419E-03 1.03004E-14-5.58440E-03-5.67192E-08 4.75817E-08-5.80346E-04
 -1       118 1.04468E-03 1.03004E-14-5.58428E-03-5.67193E-08 4.75817E-08-5.80514E-04
 -1       119 6.72812E-04 4.53626E-15-3.87281E-03-6.26174E-08 3.95507E-08-6.57666E-04
 -1       120 6.74314E-04 4.53626E-15-3.87297E-03-6.26175E-08 3.95507E-08-6.57948E-04
 -1       121 3.92269E-04 9.56979E-17-2.16353E-03-2.17448E-08 2.05017E-08-5.69693E-04
 -1       122 3.92717E-04 9.56979E-17-2.16369E-03-2.17448E-08 2.05017E-08-5.69933E-04
 -1       123-1.54835E-04 1.25811E-14-8.08959E-04-1.17684E-07 1.37221E-08-6.05484E-04
 -1       124-1.52917E-04 1.25811E-14-8.08998E-04-1.17685E-07 1.37220E-08-6.05096E-04
 -1       125 8.63536E-04 4.32832E-15-2.64534E-04 1.14912E-07 1.41013E-08-7.98322E-04
 -1       126 8.61416E-04 4.32832E-15-2.64531E-04 1.14912E-07 1.41015E-08-7.97127E-04
 -3
    1PSTEP                        88          22           3          
  100CL  122 4.20000E-01         126                     1   22           1
 -4  ERROR       1    1
 -5  STR(%)      1    1    0    0
 -1         1 6.14542E+01
 -1         2 6.58150E+01
 -1         3 6.58150E+01
 -1         4 6.14542E+01
 -1         5 6.14542E+01
 -1         6 6.58150E+01
 -1         7 6.58150E+01
 -1         8 6.14542E+01
 -1         9 6.29709E+01
 -1        10 6.17394E+01
 -1        11 6.29709E+01
 -1        12 6.17394E+01
 -1        13 6.20257E+01
 -1        14 6.17394E+01
 -1        15 6.20257E+01
 -1        16 6.17394E+01
 -1        17 6.13469E+01
 -1        18 6.13469E+01
 -1        19 6.13469E+01
 -1        20 6.13469E+01
 -1        21 5.81165E+01
 -1        22 5.81165E+01
 -1        23 5.81165E+01
 -1        24 5.81165E+01
 -1        25 4.35272E+01
 -1        26 3.86207E+01
 -1        27 4.35272E+01
 -1        28 3.86207E+01
 -1        29 6.10976E+01
 -1        30 4.76129E+01
 -1        31 6.10976E+01
 -1        32 4.76129E+01
 -1        33 6.91038E+01
 -1        34 5.52105E+01
 -1        35 6.91038E+01
 -1        36 5.52105E+01
 -1        37 6.91038E+01
 -1        38 5.62313E+01
 -1        39 6.91038E+01
 -1        40 5.62313E+01
 -1        41 6.70068E+01
 -1        42 5.62997E+01
 -1        43 6.70068E+01
 -1        44 5.62997E+01
 -1        45 6.51073E+01
 -1        46 5.62997E+01
 -1        47 6.51073E+01
 -1        48 5.62997E+01
 -1        49 6.34426E+01
 -1        50 5.61343E+01
 -1        51 6.34426E+01
 -1        52 5.61343E+01
 -1        53 6.46115E+01
 -1        54 5.68653E+01
 -1        55 6.46115E+01
 -1        56 5.68653E+01
 -1        57 6.57383E+01
 -1        58 5.70187E+01
 -1        59 6.57383E+01
 -1        60 5.70187E+01
 -1        61 6.70229E+01
 -1        62 5.70187E+01
 -1        63 6.70229E+01
 -1        64 5.70187E+01
 -1        65 6.76056E+01
 -1        66 5.68962E+01
 -1        67 6.76056E+01
 -1        68 5.68962E+01
 -1        69 6.76056E+01
 -1        70 5.54386E+01
 -1        71 6.76056E+01
 -1        72 5.54386E+01
 -1        73 6.59096E+01
 -1        74 5.18877E+01
 -1        75 6.59096E+01
 -1        76 5.18877E+01
 -1        77 7.39507E+01
 -1        78 7.39507E+01
 -1        79 7.39507E+01
 -1        80 7.39507E+01
 -1        81 7.39507E+01
 -1        82 7.39507E+01
 -1        83 7.39507E+01
 -1        84 7.39507E+01
 -1        85 6.58150E+01
 -1        86 6.58150E+01
 -1        87 6.58150E+01
 -1        88 6.58150E+01
 -1        89 6.29709E+01
 -1        90 6.29709E+01
 -1        91 6.20257E+01
 -1        92 6.20257E+01
 -1        93 5.90417E+01
 -1        94 5.90417E+01
 -1        95 5.28484E+01
 -1        96 5.28484E+01
 -1        97 4.35272E+01
 -1        98 4.35272E+01
 -1        99 6.10976E+01
 -1       100 6.10976E+01
 -1       101 6.91038E+01
 -1       102 6.91038E+01
 -1       103 6.91038E+01
 -1       104 6.91038E+01
 -1       105 6.70068E+01
 -1       106 6.70068E+01
 -1       107 6.51073E+01
 -1       108 6.51073E+01
 -1       109 6.34426E+01
 -1       110 6.34426E+01
 -1       111 6.46115E+01
 -1       112 6.46115E+01
 -1       113 6.57383E+01
 -1       114 6.57383E+01
 -1       115 6.70229E+01
 -1       116 6.70229E+01
 -1       117 6.76056E+01
 -1       118 6.76056E+01
 -1       119 6.76056E+01
 -1       120 6.76056E+01
 -1       121 6.59096E+01
 -1       122 6.59096E+01
 -1       123 4.77498E+01
 -1       124 4.77498E+01
 -1       125 3.63790E+01
 -1       126 3.63790E+01
 -3
    1PSTEP                        89          23           3          
  100CL  123 4.30000E-01         126                     1   23           1
 -4  DISP        4    1
 -5  D1          1    2    1    0
 -5  D2          1    2    2    0
 -5  D3          1    2    3    0
 -5  ALL         1    2    0    0    1ALL
 -1         1 0.00000E+00 0.00000E+00 0.00000E+00
 -1         2 0.00000E+00 0.00000E+00 0.00000E+00
 -1         3 1.32762E-03 0.00000E+00-2.27591E-05
 -1         4 1.77552E-03 0.00000E+00-2.08286E-03
 -1         5 0.00000E+00 0.00000E+00 0.00000E+00
 -1         6 0.00000E+00 0.00000E+00 0.00000E+00
 -1         7 1.32760E-03 0.00000E+00-2.27831E-05
 -1         8 1.77550E-03 0.00000E+00-2.08286E-03
 -1         9 4.83437E-03 0.00000E+00-1.18227E-04
 -1        10 4.96324E-03 0.00000E+00-3.88061E-03
 -1        11 4.83440E-03 0.00000E+00-1.18258E-04
 -1        12 4.96323E-03 0.00000E+00-3.88060E-03
 -1        13 9.67778E-03 0.00000E+00-3.21155E-04
 -1        14 9.63551E-03 0.00000E+00-5.29542E-03
 -1        15 9.67780E-03 0.00000E+00-3.21189E-04
 -1        16 9.63549E-03 0.00000E+00-5.29540E-03
 -1        17 1.54797E-02 0.00000E+00-6.23715E-04
 -1        18 1.52686E-02 0.00000E+00-6.40786E-03
 -1        19 1.54797E-02 0.00000E+00-6.23737E-04
 -1        20 1.52685E-02 0.00000E+00-6.40784E-03
 -1        21 2.18559E-02 0.00000E+00-9.94436E-04
 -1        22 2.15226E-02 0.00000E+00-7.25148E-03
 -1        23 2.18559E-02 0.00000E+00-9.94427E-04
 -1        24 2.15226E-02 0.00000E+00-7.25147E-03
 -1        25 2.85061E-02 0.00000E+00-1.40085E-03
 -1        26 2.80947E-02 0.00000E+00-7.85734E-03
 -1        27 2.85061E-02 0.00000E+00-1.40081E-03
 -1        28 2.80946E-02 0.00000E+00-7.85733E-03
 -1        29 3.51946E-02 0.00000E+00-1.81448E-03
 -1        30 3.47441E-02 0.00000E+00-8.25074E-03
 -1        31 3.51947E-02 0.00000E+00-1.81446E-03
 -1        32 3.47441E-02 0.00000E+00-8.25072E-03
 -1        33 4.17331E-02 0.00000E+00-2.21036E-03
 -1        34 4.12736E-02 0.00000E+00-8.45088E-03
 -1        35 4.17331E-02 0.00000E+00-2.21034E-03
 -1        36 4.12736E-02 0.00000E+00-8.45085E-03
 -1        37 4.79629E-02 0.00000E+00-2.56892E-03
 -1        38 4.75193E-02 0.00000E+00-8.47755E-03
 -1        39 4.79629E-02 0.00000E+00-2.56889E-03
 -1        40 4.75193E-02 0.00000E+00-8.47752E-03
 -1        41 5.37577E-02 0.00000E+00-2.87864E-03
 -1        42 5.33498E-02 0.00000E+00-8.36260E-03
 -1        43 5.37577E-02 0.00000E+00-2.87863E-03
 -1        44 5.33497E-02 0.00000E+00-8.36260E-03
 -1        45 5.90463E-02 0.00000E+00-3.13690E-03
 -1        46 5.86861E-02 0.00000E+00-8.15304E-03
 -1        47 5.90463E-02 0.00000E+00-3.13690E-03
 -1        48 5.86861E-02 0.00000E+00-8.15304E-03
 -1        49 6.38270E-02 0.00000E+00-3.34917E-03
 -1        50 6.35173E-02 0.00000E+00-7.89616E-03
 -1        51 6.38270E-02 0.00000E+00-3.34917E-03
 -1        52 6.35173E-02 0.00000E+00-7.89616E-03
 -1        53 6.81308E-02 0.00000E+00-3.52339E-03
 -1        54 6.78679E-02 0.00000E+00-7.62028E-03
 -1        55 6.81307E-02 0.00000E+00-3.52340E-03
 -1        56 6.78678E-02 0.00000E+00-7.62032E-03
 -1        57 7.19844E-02 0.00000E+00-3.66645E-03
 -1        58 7.17645E-02 0.00000E+00-7.33758E-03
 -1        59 7.19844E-02 0.00000E+00-3.66645E-03
 -1        60 7.17644E-02 0.00000E+00-7.33762E-03
 -1        61 7.54078E-02 0.00000E+00-3.78295E-03
 -1        62 7.52269E-02 0.00000E+00-7.06484E-03
 -1        63 7.54078E-02 0.00000E+00-3.78295E-03
 -1        64 7.52269E-02 0.00000E+00-7.06489E-03
 -1        65 7.84460E-02 0.00000E+00-3.87692E-03
 -1        66 7.83010E-02 0.00000E+00-6.82676E-03
 -1        67 7.84460E-02 0.00000E+00-3.87693E-03
 -1        68 7.83010E-02 0.00000E+00-6.82679E-03
 -1        69 8.11689E-02 0.00000E+00-3.95230E-03
 -1        70 8.10583E-02 0.00000E+00-6.64755E-03
 -1        71 8.11690E-02 0.00000E+00-3.95229E-03
 -1        72 8.10583E-02 0.00000E+00-6.64754E-03
 -1        73 8.36781E-02 0.00000E+00-4.01444E-03
 -1        74 8.35909E-02 0.00000E+00-6.54371E-03
 -1        75 8.36781E-02 0.00000E+00-4.01442E-03
 -1        76 8.35909E-02 0.00000E+00-6.54373E-03
 -1        77 8.60809E-02 0.00000E+00-4.06701E-03
 -1        78 8.60255E-02 0.00000E+00-6.51942E-03
 -1        79 8.60809E-02 0.00000E+00-4.06701E-03
 -1        80 8.60255E-02 0.00000E+00-6.51938E-03
 -1        81 8.84934E-02 0.00000E+00-4.12264E-03
 -1        82 8.83925E-02 0.00000E+00-6.52864E-03
 -1        83 8.84934E-02 0.00000E+00-4.12263E-03
 -1        84 8.83924E-02 0.00000E+00-6.52864E-03
 -1        85 0.00000E+00 0.00000E+00 0.00000E+00
 -1        86 1.90527E-03 0.00000E+00 1.99543E-03
 -1        87 0.00000E+00 0.00000E+00 0.00000E+00
 -1        88 1.90529E-03 0.00000E+00 1.99543E-03
 -1        89 5.29496E-03 0.00000E+00 3.58531E-03
 -1        90 5.29502E-03 0.00000E+00 3.58530E-03
 -1        91 1.01679E-02 0.00000E+00 4.59719E-03
 -1        92 1.01679E-02 0.00000E+00 4.59716E-03
 -1        93 1.59731E-02 0.00000E+00 5.12201E-03
 -1        94 1.59732E-02 0.00000E+00 5.12198E-03
 -1        95 2.23421E-02 0.00000E+00 5.24047E-03
 -1        96 2.23422E-02 0.00000E+00 5.24047E-03
 -1        97 2.89645E-02 0.00000E+00 5.04763E-03
 -1        98 2.89646E-02 0.00000E+00 5.04767E-03
 -1        99 3.56077E-02 0.00000E+00 4.62614E-03
 -1       100 3.56078E-02 0.00000E+00 4.62617E-03
 -1       101 4.20875E-02 0.00000E+00 4.04356E-03
 -1       102 4.20875E-02 0.00000E+00 4.04357E-03
 -1       103 4.82505E-02 0.00000E+00 3.35751E-03
 -1       104 4.82506E-02 0.00000E+00 3.35752E-03
 -1       105 5.39797E-02 0.00000E+00 2.62369E-03
 -1       106 5.39797E-02 0.00000E+00 2.62369E-03
 -1       107 5.92116E-02 0.00000E+00 1.89601E-03
 -1       108 5.92117E-02 0.00000E+00 1.89600E-03
 -1       109 6.39470E-02 0.00000E+00 1.21187E-03
 -1       110 6.39471E-02 0.00000E+00 1.21183E-03
 -1       111 6.82135E-02 0.00000E+00 5.83926E-04
 -1       112 6.82135E-02 0.00000E+00 5.83897E-04
 -1       113 7.20367E-02 0.00000E+00 1.28330E-05
 -1       114 7.20367E-02 0.00000E+00 1.28075E-05
 -1       115 7.54412E-02 0.00000E+00-4.93808E-04
 -1       116 7.54412E-02 0.00000E+00-4.93822E-04
 -1       117 7.84717E-02 0.00000E+00-9.21185E-04
 -1       118 7.84718E-02 0.00000E+00-9.21189E-04
 -1       119 8.11988E-02 0.00000E+00-1.25172E-03
 -1       120 8.11989E-02 0.00000E+00-1.25174E-03
 -1       121 8.37161E-02 0.00000E+00-1.47699E-03
 -1       122 8.37161E-02 0.00000E+00-1.47700E-03
 -1       123 8.61465E-02 0.00000E+00-1.60978E-03
 -1       124 8.61466E-02 0.00000E+00-1.60979E-03
 -1       125 8.85096E-02 0.00000E+00-1.67947E-03
 -1       126 8.85095E-02 0.00000E+00-1.67944E-03
 -3
    1PSTEP                        90          23           3          
  100CL  123 4.30000E-01         126                     1   23           1
 -4  STRESS      6    1
 -5  SXX         1    4    1    1
 -5  SYY         1    4    2    2
 -5  SZZ         1    4    3    3
 -5  SXY         1    4    1    2
 -5  SYZ         1    4    2    3
 -5  SZX         1    4    3    1
 -1         1-9.35369E+03-9.66806E+03-2.10575E+04 2.25591E-06-4.09735E-05 4.75844E+03
 -1         2 1.28692E+02-2.35810E+01-3.99127E+02-8.86365E-05-7.11999E-05 4.07171E+03
 -1         3 9.57893E+01-6.76274E+01-3.83345E+02-1.11574E-02-1.23850E-02 1.14678E+03
 -1         4-3.19259E+03-6.38298E+03-1.70496E+04-6.30386E-03-2.71782E-03 9.17257E+02
 -1         5-9.35373E+03-9.66809E+03-2.10576E+04 2.25662E-06-4.09731E-05 4.75841E+03
 -1         6 1.28569E+02-2.36944E+01-3.99393E+02-8.86382E-05-7.12004E-05 4.07164E+03
 -1         7 9.55681E+01-6.77697E+01-3.83576E+02-1.11574E-02-1.23850E-02 1.14681E+03
 -1         8-3.19248E+03-6.38294E+03-1.70495E+04-6.30386E-03-2.71782E-03 9.17298E+02
 -1         9 1.40370E+02 1.25946E+01-1.85098E+02 1.53140E-02-1.59276E-02 1.34438E+03
 -1        10-3.65374E+03-5.44005E+03-1.38011E+04-3.77109E-03 1.54492E-03 1.01298E+02
 -1        11 1.39980E+02 1.24139E+01-1.85310E+02 1.53140E-02-1.59275E-02 1.34448E+03
 -1        12-3.65413E+03-5.44020E+03-1.38012E+04-3.77108E-03 1.54491E-03 1.01402E+02
 -1        13 2.09691E+02 5.63394E+01-5.42118E+01 8.94676E-03-1.70536E-02 1.14637E+03
 -1        14-2.24302E+03-3.63552E+03-9.55600E+03-7.61959E-03 6.22950E-03 1.61727E+02
 -1        15 2.09227E+02 5.61461E+01-5.43910E+01 8.94674E-03-1.70536E-02 1.14639E+03
 -1        16-2.24340E+03-3.63568E+03-9.55615E+03-7.61958E-03 6.22949E-03 1.61787E+02
 -1        17 2.19300E+02 7.93134E+01 3.45042E+01-1.09085E-02-1.13719E-02 9.91886E+02
 -1        18-1.40270E+03-2.28777E+03-6.09217E+03-3.43132E-02 7.44649E-03 2.06738E+02
 -1        19 2.18736E+02 7.91204E+01 3.44261E+01-1.09084E-02-1.13719E-02 9.91920E+02
 -1        20-1.40327E+03-2.28804E+03-6.09247E+03-3.43131E-02 7.44648E-03 2.06763E+02
 -1        21 1.95846E+02 8.92902E+01 1.02501E+02-1.28244E-02 4.86305E-03 8.23122E+02
 -1        22-6.64775E+02-1.15422E+03-3.14398E+03-4.23941E-02 3.45996E-03 3.20490E+02
 -1        23 1.95221E+02 8.90937E+01 1.02471E+02-1.28244E-02 4.86305E-03 8.23144E+02
 -1        24-6.65412E+02-1.15449E+03-3.14427E+03-4.23939E-02 3.45995E-03 3.20486E+02
 -1        25 1.66513E+02 9.12528E+01 1.41717E+02-1.58739E-02 1.67169E-02 6.72217E+02
 -1        26-7.59851E+01-2.45193E+02-7.33458E+02-3.98466E-02 5.00289E-03 4.34222E+02
 -1        27 1.66037E+02 9.10675E+01 1.41576E+02-1.58738E-02 1.67169E-02 6.72259E+02
 -1        28-7.64188E+01-2.45366E+02-7.33600E+02-3.98465E-02 5.00288E-03 4.34260E+02
 -1        29 1.35526E+02 8.72588E+01 1.58301E+02 7.05873E-03 1.05921E-02 5.45317E+02
 -1        30 3.93012E+02 4.79173E+02 1.21547E+03-1.26688E-02 5.79241E-03 5.31292E+02
 -1        31 1.35091E+02 8.70599E+01 1.58074E+02 7.05872E-03 1.05921E-02 5.45400E+02
 -1        32 3.92678E+02 4.79050E+02 1.21539E+03-1.26688E-02 5.79241E-03 5.31367E+02
 -1        33 9.67539E+01 7.83738E+01 1.64281E+02 1.59381E-02 1.09377E-02 4.28895E+02
 -1        34 7.42591E+02 1.04282E+03 2.76460E+03-1.08514E-02 1.17832E-02 5.88836E+02
 -1        35 9.61660E+01 7.81343E+01 1.64071E+02 1.59381E-02 1.09377E-02 4.28915E+02
 -1        36 7.42060E+02 1.04261E+03 2.76444E+03-1.08514E-02 1.17832E-02 5.88844E+02
 -1        37 5.80284E+01 6.81767E+01 1.65493E+02 2.24620E-03 1.59899E-02 2.99546E+02
 -1        38 9.84516E+02 1.45263E+03 3.91261E+03-1.87437E-02 1.33877E-02 5.82010E+02
 -1        39 5.74952E+01 6.79421E+01 1.65243E+02 2.24619E-03 1.59899E-02 2.99514E+02
 -1        40 9.84025E+02 1.45240E+03 3.91232E+03-1.87436E-02 1.33877E-02 5.81966E+02
 -1        41 2.34060E+01 5.65804E+01 1.58665E+02-7.10966E-03 9.19533E-03 1.56838E+02
 -1        42 1.11744E+03 1.69225E+03 4.59550E+03-2.34558E-02 1.82665E-03 5.05739E+02
 -1        43 2.29255E+01 5.63430E+01 1.58353E+02-7.10965E-03 9.19532E-03 1.56831E+02
 -1        44 1.11704E+03 1.69205E+03 4.59522E+03-2.34557E-02 1.82665E-03 5.05687E+02
 -1        45 1.09762E+00 4.48663E+01 1.40117E+02-1.50898E-03 3.27481E-03 3.72137E+01
 -1        46 1.15488E+03 1.76623E+03 4.80915E+03-2.28008E-02-2.92835E-04 3.97828E+02
 -1        47 6.31264E-01 4.46375E+01 1.39820E+02-1.50897E-03 3.27481E-03 3.72884E+01
 -1        48 1.15447E+03 1.76606E+03 4.80899E+03-2.28007E-02-2.92844E-04 3.97886E+02
 -1        49-9.39956E+00 3.21001E+01 1.07588E+02 1.24674E-02-1.93342E-03-3.20006E+01
 -1        50 1.12764E+03 1.72475E+03 4.69321E+03-1.44478E-03 2.59387E-03 3.01155E+02
 -1        51-9.83150E+00 3.18866E+01 1.07310E+02 1.24674E-02-1.93342E-03-3.19629E+01
 -1        52 1.12726E+03 1.72453E+03 4.69285E+03-1.44478E-03 2.59386E-03 3.01173E+02
 -1        53-1.14299E+01 1.92056E+01 6.73313E+01-1.23694E-02-5.77502E-03-6.97226E+01
 -1        54 1.07028E+03 1.63273E+03 4.43561E+03-2.67539E-02-2.11422E-02 2.22212E+02
 -1        55-1.18819E+01 1.90181E+01 6.71570E+01-1.23693E-02-5.77501E-03-6.97911E+01
 -1        56 1.06987E+03 1.63251E+03 4.43526E+03-2.67539E-02-2.11421E-02 2.22035E+02
 -1        57-4.27786E+00 1.07739E+01 3.35858E+01-8.09711E-03-2.12565E-04-1.12332E+02
 -1        58 9.98610E+02 1.51164E+03 4.09423E+03-2.95644E-02-1.96526E-02 1.40275E+02
 -1        59-4.68648E+00 1.06134E+01 3.34605E+01-8.09710E-03-2.12565E-04-1.12355E+02
 -1        60 9.98164E+02 1.51145E+03 4.09404E+03-2.95643E-02-1.96525E-02 1.40162E+02
 -1        61-8.61731E+00 2.29987E+00 1.13912E+01-1.77493E-02-4.36677E-04-1.68535E+02
 -1        62 8.81998E+02 1.33253E+03 3.60169E+03-2.87325E-02-2.34434E-02 4.68102E+01
 -1        63-9.06306E+00 2.09218E+00 1.11424E+01-1.77493E-02-4.36673E-04-1.68545E+02
 -1        64 8.81811E+02 1.33247E+03 3.60167E+03-2.87325E-02-2.34434E-02 4.67303E+01
 -1        65-8.10816E+00 2.30533E+00 1.28695E+01 2.28823E-03-8.07831E-03-2.22310E+02
 -1        66 7.21486E+02 1.08685E+03 2.92946E+03-1.22528E-02-1.56550E-02-4.14006E+01
 -1        67-8.27080E+00 2.25860E+00 1.28762E+01 2.28822E-03-8.07831E-03-2.22262E+02
 -1        68 7.21340E+02 1.08687E+03 2.92967E+03-1.22528E-02-1.56550E-02-4.13385E+01
 -1        69 1.98040E+00 1.10367E+01 3.34656E+01 1.00833E-02 7.71137E-03-2.51638E+02
 -1        70 5.50885E+02 7.99647E+02 2.12997E+03 2.99949E-03 6.74985E-03-1.13795E+02
 -1        71 1.68692E+00 1.09468E+01 3.34582E+01 1.00832E-02 7.71138E-03-2.51570E+02
 -1        72 5.50763E+02 7.99608E+02 2.12997E+03 2.99948E-03 6.74985E-03-1.13790E+02
 -1        73 8.36974E+00 2.14195E+01 6.28011E+01 4.40135E-03 6.71668E-03-2.37135E+02
 -1        74 3.17008E+02 4.73035E+02 1.26550E+03-9.89663E-03-1.03043E-02-1.17460E+02
 -1        75 8.12420E+00 2.13026E+01 6.26580E+01 4.40134E-03 6.71668E-03-2.37233E+02
 -1        76 3.16771E+02 4.72969E+02 1.26552E+03-9.89661E-03-1.03043E-02-1.17553E+02
 -1        77 1.60733E+00 1.70148E+01 5.49228E+01-1.87825E-02 3.07942E-03-1.43957E+02
 -1        78 3.36525E+02 3.22422E+02 7.40300E+02 4.23462E-03 1.87434E-02-1.49720E+02
 -1        79 1.36978E+00 1.69122E+01 5.48171E+01-1.87825E-02 3.07941E-03-1.43846E+02
 -1        80 3.37035E+02 3.22661E+02 7.40588E+02 4.23461E-03 1.87434E-02-1.49687E+02
 -1        81 1.18436E+01 1.32340E+01 3.28120E+01 1.58487E-02 7.45090E-03-3.69529E+01
 -1        82-2.57076E+02 1.80130E+01 3.17955E+02-2.81959E-02-6.17585E-04-1.06348E+02
 -1        83 1.19578E+01 1.33064E+01 3.29413E+01 1.58487E-02 7.45090E-03-3.67867E+01
 -1        84-2.58201E+02 1.74328E+01 3.17147E+02-2.81958E-02-6.17571E-04-1.06583E+02
 -1        85 9.58526E+03 9.19217E+03 2.28459E+04 6.61962E-05 7.12172E-05 6.62470E+03
 -1        86 3.11383E+03 6.14727E+03 1.84154E+04 1.05946E-02 2.66453E-03 2.39030E+03
 -1        87 9.58529E+03 9.19220E+03 2.28459E+04 6.62001E-05 7.12183E-05 6.62476E+03
 -1        88 3.11339E+03 6.14707E+03 1.84151E+04 1.05945E-02 2.66453E-03 2.39031E+03
 -1        89 3.58227E+03 5.29094E+03 1.47632E+04 3.19594E-02-9.15095E-03 1.81848E+03
 -1        90 3.58186E+03 5.29072E+03 1.47628E+04 3.19594E-02-9.15093E-03 1.81851E+03
 -1        91 2.49058E+03 3.70497E+03 1.02221E+04 3.46627E-02-1.99740E-02 1.74154E+03
 -1        92 2.49001E+03 3.70470E+03 1.02218E+04 3.46627E-02-1.99740E-02 1.74155E+03
 -1        93 1.70828E+03 2.43426E+03 6.56919E+03 2.55214E-02-1.67742E-02 1.37063E+03
 -1        94 1.70762E+03 2.43404E+03 6.56909E+03 2.55213E-02-1.67742E-02 1.37067E+03
 -1        95 9.54230E+02 1.32923E+03 3.53302E+03 2.91061E-02 3.20760E-03 9.84988E+02
 -1        96 9.53495E+02 1.32901E+03 3.53300E+03 2.91059E-02 3.20761E-03 9.85001E+02
 -1        97 3.29965E+02 4.28802E+02 1.11228E+03 1.17629E-02 1.80859E-02 6.26764E+02
 -1        98 3.29447E+02 4.28610E+02 1.11216E+03 1.17629E-02 1.80859E-02 6.26788E+02
 -1        99-1.83731E+02-3.03011E+02-8.19934E+02 3.14399E-02 1.42846E-02 3.32983E+02
 -1       100-1.84232E+02-3.03251E+02-8.20229E+02 3.14399E-02 1.42846E-02 3.33080E+02
 -1       101-6.03409E+02-8.91903E+02-2.34988E+03 4.71510E-02 7.44436E-03 9.74527E+01
 -1       102-6.04106E+02-8.92226E+02-2.35025E+03 4.71508E-02 7.44437E-03 9.74841E+01
 -1       103-9.15173E+02-1.33002E+03-3.47779E+03 2.84288E-02 6.08992E-03-9.27713E+01
 -1       104-9.15792E+02-1.33030E+03-3.47811E+03 2.84287E-02 6.08992E-03-9.27858E+01
 -1       105-1.10373E+03-1.59482E+03-4.15486E+03 1.66574E-02 3.26467E-03-2.35291E+02
 -1       106-1.10428E+03-1.59509E+03-4.15518E+03 1.66573E-02 3.26467E-03-2.35271E+02
 -1       107-1.17274E+03-1.69100E+03-4.39956E+03 1.89418E-02-2.58443E-03-3.12946E+02
 -1       108-1.17326E+03-1.69128E+03-4.39997E+03 1.89418E-02-2.58442E-03-3.12853E+02
 -1       109-1.16168E+03-1.67568E+03-4.36079E+03 3.44499E-02-1.80843E-02-3.28931E+02
 -1       110-1.16221E+03-1.67595E+03-4.36115E+03 3.44498E-02-1.80842E-02-3.28835E+02
 -1       111-1.10433E+03-1.60702E+03-4.19378E+03 1.54780E-02-1.44625E-02-3.16750E+02
 -1       112-1.10493E+03-1.60726E+03-4.19400E+03 1.54780E-02-1.44625E-02-3.16748E+02
 -1       113-1.00835E+03-1.49479E+03-3.92239E+03 1.16912E-02-1.28706E-02-3.05943E+02
 -1       114-1.00874E+03-1.49494E+03-3.92252E+03 1.16912E-02-1.28706E-02-3.05869E+02
 -1       115-8.93125E+02-1.32828E+03-3.49276E+03 1.13442E-02-6.98805E-03-3.03221E+02
 -1       116-8.93697E+02-1.32850E+03-3.49292E+03 1.13442E-02-6.98805E-03-3.03177E+02
 -1       117-7.25482E+02-1.07949E+03-2.84450E+03 8.80870E-03-2.17473E-03-2.97099E+02
 -1       118-7.25619E+02-1.07956E+03-2.84458E+03 8.80870E-03-2.17473E-03-2.97056E+02
 -1       119-5.24125E+02-7.64928E+02-2.01074E+03 3.70457E-02-1.08045E-02-2.79750E+02
 -1       120-5.24716E+02-7.65197E+02-2.01104E+03 3.70456E-02-1.08044E-02-2.79628E+02
 -1       121-2.78602E+02-4.21484E+02-1.12131E+03 1.02442E-02-5.79151E-03-2.16206E+02
 -1       122-2.78712E+02-4.21521E+02-1.12133E+03 1.02442E-02-5.79151E-03-2.16158E+02
 -1       123-2.75586E+02-2.25822E+02-4.75728E+02 2.72142E-02-5.58065E-03-1.90833E+02
 -1       124-2.76489E+02-2.26163E+02-4.75958E+02 2.72142E-02-5.58066E-03-1.90889E+02
 -1       125 3.81658E+02 1.36993E+02 7.61562E+01-3.16728E-02 1.34003E-02-2.54659E+02
 -1       126 3.82770E+02 1.37567E+02 7.69612E+01-3.16729E-02 1.34003E-02-2.55057E+02
 -3
    1PSTEP                        91          23           3          
  100CL  123 4.30000E-01         126                     1   23           1
 -4  TOSTRAIN    6    1
 -5  EXX         1    4    1    1
 -5  EYY         1    4    2    2
 -5  EZZ         1    4    3    3
 -5  EXY         1    4    1    2
 -5  EYZ         1    4    2    3
 -5  EZX         1    4    3    1
 -1         1-1.48314E-04-1.08782E-16-4.03062E-02-3.79719E-11 4.83524E-13 1.77549E-02
 -1         2-1.47510E-04-7.23827E-16-2.50088E-04-2.79243E-10 2.78740E-13 1.32759E-02
 -1         3-5.34883E-04 2.82738E-15 1.02131E-04-3.41730E-08-4.17306E-08 3.77299E-03
 -1         4 9.72249E-03 7.40195E-16-3.68409E-02-2.00969E-08-1.04624E-08 5.23678E-03
 -1         5-1.48312E-04-1.08782E-16-4.03063E-02-3.79706E-11 4.83524E-13 1.77548E-02
 -1         6-1.47511E-04-7.23827E-16-2.50580E-04-2.79246E-10 2.78740E-13 1.32757E-02
 -1         7-5.35205E-04 2.82738E-15 1.01846E-04-3.41730E-08-4.17306E-08 3.77308E-03
 -1         8 9.72266E-03 7.40195E-16-3.68408E-02-2.00969E-08-1.04624E-08 5.23692E-03
 -1         9-5.80643E-04 7.62338E-15 5.23065E-04 5.40683E-08-4.81750E-08 4.39389E-03
 -1        10 5.33664E-03-1.97132E-15-2.84774E-02-1.25589E-08 3.85850E-09 2.98593E-03
 -1        11-5.81355E-04 7.62338E-15 5.22995E-04 5.40682E-08-4.81750E-08 4.39416E-03
 -1        12 5.33584E-03-1.97132E-15-2.84772E-02-1.25589E-08 3.85849E-09 2.98621E-03
 -1        13-4.42108E-04 4.55800E-15 6.34253E-04 3.49356E-08-5.22825E-08 3.73011E-03
 -1        14 4.06699E-03-2.14425E-15-1.96283E-02-2.67359E-08 1.79837E-08 2.99742E-03
 -1        15-4.42982E-04 4.55800E-15 6.34290E-04 3.49356E-08-5.22825E-08 3.73005E-03
 -1        16 4.06625E-03-2.14425E-15-1.96283E-02-2.67359E-08 1.79837E-08 2.99753E-03
 -1        17-3.85324E-04 5.20214E-17 7.06461E-04-3.05916E-08-4.07560E-08 3.20015E-03
 -1        18 2.46203E-03 2.15829E-14-1.22963E-02-1.13782E-07 1.13467E-08 2.47455E-03
 -1        19-3.86538E-04 5.20214E-17 7.06839E-04-3.05916E-08-4.07560E-08 3.20008E-03
 -1        20 2.46104E-03 2.15829E-14-1.22964E-02-1.13782E-07 1.13468E-08 2.47453E-03
 -1        21-3.62302E-04-1.25231E-15 7.42259E-04-4.33220E-08 1.05010E-08 2.62375E-03
 -1        22 1.18264E-03 3.51000E-14-6.16102E-03-1.38194E-07-6.06712E-09 2.03964E-03
 -1        23-3.63685E-04-1.25231E-15 7.42789E-04-4.33220E-08 1.05010E-08 2.62358E-03
 -1        24 1.18151E-03 3.51000E-14-6.16108E-03-1.38194E-07-6.06710E-09 2.03949E-03
 -1        25-3.34370E-04 7.53153E-15 7.28574E-04-5.83638E-08 4.71937E-08 2.11786E-03
 -1        26 1.42456E-04 3.03429E-14-1.20054E-03-1.30556E-07-5.75223E-10 1.64359E-03
 -1        27-3.35333E-04 7.53153E-15 7.28734E-04-5.83637E-08 4.71937E-08 2.11785E-03
 -1        28 1.41590E-04 3.03429E-14-1.20043E-03-1.30556E-07-5.75295E-10 1.64359E-03
 -1        29-3.08667E-04 5.02994E-16 6.85726E-04 1.81799E-08 3.70593E-08 1.70066E-03
 -1        30-6.85743E-04 1.34349E-15 2.76821E-03-4.32917E-08 1.33041E-08 1.32011E-03
 -1        31-3.09499E-04 5.02994E-16 6.85695E-04 1.81799E-08 3.70593E-08 1.70084E-03
 -1        32-6.86481E-04 1.34349E-15 2.76841E-03-4.32917E-08 1.33040E-08 1.32024E-03
 -1        33-3.01903E-04 4.35994E-15 6.37780E-04 4.68042E-08 4.16863E-08 1.32070E-03
 -1        34-1.36151E-03 2.71142E-15 5.89767E-03-3.98432E-08 3.32927E-08 1.02547E-03
 -1        35-3.03036E-04 4.35994E-15 6.37874E-04 4.68041E-08 4.16863E-08 1.32061E-03
 -1        36-1.36255E-03 2.71142E-15 5.89780E-03-3.98432E-08 3.32927E-08 1.02535E-03
 -1        37-2.85555E-04 2.73224E-15 5.73738E-04 9.54003E-10 5.23871E-08 9.03543E-04
 -1        38-1.85404E-03 9.21680E-15 8.17940E-03-6.56378E-08 3.55389E-08 7.06704E-04
 -1        39-2.86486E-04 2.73224E-15 5.73651E-04 9.54004E-10 5.23871E-08 9.03334E-04
 -1        40-1.85484E-03 9.21680E-15 8.17918E-03-6.56378E-08 3.55389E-08 7.06490E-04
 -1        41-2.49337E-04 9.05421E-16 4.84563E-04-2.63253E-08 2.71228E-08 4.48518E-04
 -1        42-2.11750E-03 1.03433E-14 9.49094E-03-7.63284E-08-2.51671E-09 3.60905E-04
 -1        43-2.50112E-04 9.05421E-16 4.84308E-04-2.63252E-08 2.71228E-08 4.48437E-04
 -1        44-2.11810E-03 1.03433E-14 9.49067E-03-7.63284E-08-2.51671E-09 3.60701E-04
 -1        45-1.97502E-04-1.80463E-15 3.80917E-04-6.00408E-09 1.01371E-08 7.29561E-05
 -1        46-2.15222E-03 8.58229E-15 9.84951E-03-7.35504E-08-8.27279E-09 7.62821E-05
 -1        47-1.98317E-04-1.80463E-15 3.80739E-04-6.00408E-09 1.01371E-08 7.31387E-05
 -1        48-2.15303E-03 8.58229E-15 9.84957E-03-7.35504E-08-8.27283E-09 7.63833E-05
 -1        49-1.44867E-04 2.48289E-16 2.73280E-04 4.08776E-08-2.52269E-09-1.36930E-04
 -1        50-2.04578E-03-3.32023E-15 9.56125E-03-5.46860E-09 7.88324E-09-8.78050E-05
 -1        51-1.45601E-04 2.48289E-16 2.73088E-04 4.08775E-08-2.52270E-09-1.36856E-04
 -1        52-2.04633E-03-3.32023E-15 9.56084E-03-5.46860E-09 7.88324E-09-8.77627E-05
 -1        53-8.95155E-05 5.88586E-16 1.63016E-04-3.85878E-08-2.20842E-08-2.44635E-04
 -1        54-1.89349E-03 2.07348E-14 9.00579E-03-8.09349E-08-7.48666E-08-1.78778E-04
 -1        55-9.03259E-05 5.88586E-16 1.63014E-04-3.85878E-08-2.20842E-08-2.44928E-04
 -1        56-1.89400E-03 2.07348E-14 9.00531E-03-8.09348E-08-7.48665E-08-1.79349E-04
 -1        57-2.08743E-05-1.23166E-15 5.91675E-05-2.62416E-08-2.66541E-09-3.70312E-04
 -1        58-1.69896E-03 2.34615E-14 8.28119E-03-9.10610E-08-7.01032E-08-2.81647E-04
 -1        59-2.16670E-05-1.23166E-15 5.92649E-05-2.62416E-08-2.66541E-09-3.70458E-04
 -1        60-1.69974E-03 2.34615E-14 8.28114E-03-9.10609E-08-7.01032E-08-2.82069E-04
 -1        61 1.51185E-05 3.19329E-15-1.17774E-05-5.75110E-08-5.24485E-09-5.47374E-04
 -1        62-1.46154E-03 2.59840E-14 7.26066E-03-8.81270E-08-8.14501E-08-4.22037E-04
 -1        63 1.43592E-05 3.19329E-15-1.19190E-05-5.75110E-08-5.24486E-09-5.47449E-04
 -1        64-1.46191E-03 2.59840E-14 7.26076E-03-8.81269E-08-8.14501E-08-4.22328E-04
 -1        65 3.60299E-05-1.76368E-16-3.05139E-05 8.92029E-09-2.57582E-08-7.21453E-04
 -1        66-1.15741E-03 5.52191E-15 5.88394E-03-3.67791E-08-5.27006E-08-5.49391E-04
 -1        67 3.56353E-05-1.76368E-16-3.03221E-05 8.92029E-09-2.57582E-08-7.21327E-04
 -1        68-1.15796E-03 5.52191E-15 5.88456E-03-3.67791E-08-5.27006E-08-5.49260E-04
 -1        69 5.01434E-05 1.11886E-15-4.75689E-06 3.13907E-08 2.68240E-08-8.18419E-04
 -1        70-7.59940E-04-1.00023E-15 4.23470E-03 8.56289E-09 2.23025E-08-6.37871E-04
 -1        71 4.94622E-05 1.11886E-15-4.46629E-06 3.13907E-08 2.68240E-08-8.18253E-04
 -1        72-7.60213E-04-1.00023E-15 4.23480E-03 8.56288E-09 2.23025E-08-6.37879E-04
 -1        73 3.20132E-05-1.55340E-16 5.99110E-05 1.32040E-08 2.25031E-08-7.75384E-04
 -1        74-4.62454E-04 7.46483E-16 2.51602E-03-3.04594E-08-3.49892E-08-5.32119E-04
 -1        75 3.16253E-05-1.55340E-16 5.97925E-05 1.32040E-08 2.25031E-08-7.75716E-04
 -1        76-4.62978E-04 7.46483E-16 2.51625E-03-3.04594E-08-3.49892E-08-5.32458E-04
 -1        77-4.33054E-06 1.97066E-15 7.77280E-05-6.14546E-08 7.00492E-09-4.74074E-04
 -1        78 9.53030E-05 2.89713E-15 1.30358E-03 1.08375E-08 6.14144E-08-5.46374E-04
 -1        79-4.80096E-06 1.97066E-15 7.77531E-05-6.14546E-08 7.00492E-09-4.73737E-04
 -1        80 9.61704E-05 2.89713E-15 1.30375E-03 1.08375E-08 6.14144E-08-5.46231E-04
 -1        81 5.89034E-06-1.25968E-15 5.19779E-05 5.02771E-08 2.66896E-08-1.22463E-04
 -1        82-8.58110E-04 7.71945E-15 9.35890E-04-9.14949E-08-6.42892E-09-4.33557E-04
 -1        83 5.97040E-06-1.25968E-15 5.22140E-05 5.02771E-08 2.66896E-08-1.21927E-04
 -1        84-8.59811E-04 7.71945E-15 9.35076E-04-9.14948E-08-6.42887E-09-4.34370E-04
 -1        85-1.46705E-04-2.13435E-17 4.12830E-02 1.20656E-10 3.61481E-13 1.90523E-02
 -1        86-1.07923E-02-8.92573E-16 3.78942E-02 3.40312E-08 9.73264E-09 5.26327E-03
 -1        87-1.46711E-04-2.13435E-17 4.12831E-02 1.20662E-10 3.61481E-13 1.90526E-02
 -1        88-1.07931E-02-8.92573E-16 3.78940E-02 3.40311E-08 9.73265E-09 5.26326E-03
 -1        89-6.49793E-03 2.11432E-14 2.98235E-02 1.05413E-07-2.10796E-08 2.93321E-03
 -1        90-6.49855E-03 2.11432E-14 2.98231E-02 1.05412E-07-2.10795E-08 2.93329E-03
 -1        91-4.95121E-03 3.10709E-14 2.12050E-02 1.18523E-07-5.19421E-08 2.92814E-03
 -1        92-4.95221E-03 3.10709E-14 2.12049E-02 1.18523E-07-5.19421E-08 2.92808E-03
 -1        93-3.23268E-03 1.40722E-14 1.38724E-02 8.88126E-08-4.37280E-08 2.44357E-03
 -1        94-3.23411E-03 1.40722E-14 1.38729E-02 8.88125E-08-4.37281E-08 2.44350E-03
 -1        95-1.90725E-03 1.03078E-14 7.69843E-03 9.24346E-08 2.19762E-08 2.02254E-03
 -1        96-1.90888E-03 1.03078E-14 7.69907E-03 9.24344E-08 2.19762E-08 2.02229E-03
 -1        97-8.11195E-04 5.43391E-15 2.67618E-03 3.01239E-08 6.30279E-08 1.63107E-03
 -1        98-8.12257E-04 5.43391E-15 2.67640E-03 3.01238E-08 6.30280E-08 1.63099E-03
 -1        99 6.84083E-05 2.18032E-14-1.37780E-03 9.52437E-08 5.93267E-08 1.31295E-03
 -1       100 6.74835E-05 2.18032E-14-1.37791E-03 9.52436E-08 5.93267E-08 1.31318E-03
 -1       101 7.57706E-04 4.35474E-14-4.61063E-03 1.49052E-07 4.34219E-08 1.02024E-03
 -1       102 7.56480E-04 4.35474E-14-4.61079E-03 1.49052E-07 4.34219E-08 1.02021E-03
 -1       103 1.28293E-03 1.42636E-14-7.02195E-03 8.94342E-08 3.08784E-08 6.96139E-04
 -1       104 1.28187E-03 1.42636E-14-7.02210E-03 8.94341E-08 3.08784E-08 6.95975E-04
 -1       105 1.61883E-03 3.65829E-15-8.49522E-03 5.26627E-08 1.66992E-08 3.42998E-04
 -1       106 1.61788E-03 3.65829E-15-8.49541E-03 5.26626E-08 1.66992E-08 3.42976E-04
 -1       107 1.75722E-03 5.20818E-15-9.04602E-03 6.21515E-08-2.11820E-09 5.32388E-05
 -1       108 1.75640E-03 5.20818E-15-9.04641E-03 6.21514E-08-2.11817E-09 5.35055E-05
 -1       109 1.75604E-03 2.79985E-14-8.97890E-03 1.16986E-07-4.88520E-08-1.10654E-04
 -1       110 1.75513E-03 2.79985E-14-8.97914E-03 1.16986E-07-4.88520E-08-1.10399E-04
 -1       111 1.71446E-03 5.97021E-15-8.64263E-03 5.39942E-08-4.32594E-08-1.99132E-04
 -1       112 1.71334E-03 5.97021E-15-8.64257E-03 5.39941E-08-4.32594E-08-1.99229E-04
 -1       113 1.65721E-03 4.48818E-15-8.10371E-03 4.09589E-08-3.93104E-08-2.95372E-04
 -1       114 1.65640E-03 4.48818E-15-8.10357E-03 4.09588E-08-3.93104E-08-2.95198E-04
 -1       115 1.49178E-03 7.46951E-16-7.22298E-03 3.82564E-08-2.04279E-08-4.30369E-04
 -1       116 1.49063E-03 7.46951E-16-7.22277E-03 3.82564E-08-2.04279E-08-4.30313E-04
 -1       117 1.22947E-03 3.72002E-16-5.89062E-03 2.90073E-08-5.40520E-09-5.60235E-04
 -1       118 1.22923E-03 3.72002E-16-5.89066E-03 2.90073E-08-5.40518E-09-5.60104E-04
 -1       119 8.60226E-04 2.52517E-14-4.16609E-03 1.22140E-07-2.86588E-08-6.49494E-04
 -1       120 8.59138E-04 2.52517E-14-4.16616E-03 1.22140E-07-2.86588E-08-6.49146E-04
 -1       121 5.26480E-04 1.05738E-15-2.34993E-03 3.41911E-08-1.71584E-08-5.63701E-04
 -1       122 5.26228E-04 1.05738E-15-2.34984E-03 3.41911E-08-1.71584E-08-5.63562E-04
 -1       123-1.03964E-04 4.45889E-15-8.73610E-04 8.92282E-08-1.37779E-08-5.86624E-04
 -1       124-1.05772E-04 4.45889E-15-8.73276E-04 8.92281E-08-1.37780E-08-5.86916E-04
 -1       125 8.69890E-04 8.63280E-15-2.76077E-04-1.04803E-07 3.84654E-08-7.74831E-04
 -1       126 8.71752E-04 8.63280E-15-2.75449E-04-1.04803E-07 3.84656E-08-7.76067E-04
 -3
    1PSTEP                        92          23           3          
  100CL  123 4.30000E-01         126                     1   23           1
 -4  ERROR       1    1
 -5  STR(%)      1    1    0    0
 -1         1 6.23455E+01
 -1         2 6.48411E+01
 -1         3 6.48411E+01
 -1         4 6.23455E+01
 -1         5 6.23455E+01
 -1         6 6.48411E+01
 -1         7 6.48411E+01
 -1         8 6.23455E+01
 -1         9 6.32865E+01
 -1        10 6.32865E+01
 -1        11 6.32865E+01
 -1        12 6.32865E+01
 -1        13 6.32865E+01
 -1        14 6.32865E+01
 -1        15 6.32865E+01
 -1        16 6.32865E+01
 -1        17 6.29877E+01
 -1        18 6.29877E+01
 -1        19 6.29877E+01
 -1        20 6.29877E+01
 -1        21 6.04919E+01
 -1        22 6.04919E+01
 -1        23 6.04919E+01
 -1        24 6.04919E+01
 -1        25 4.66010E+01
 -1        26 4.66010E+01
 -1        27 4.66010E+01
 -1        28 4.66010E+01
 -1        29 5.54784E+01
 -1        30 4.33465E+01
 -1        31 5.54784E+01
 -1        32 4.33465E+01
 -1        33 6.79412E+01
 -1        34 5.48245E+01
 -1        35 6.79412E+01
 -1        36 5.48245E+01
 -1        37 6.79412E+01
 -1        38 5.71366E+01
 -1        39 6.79412E+01
 -1        40 5.71366E+01
 -1        41 6.61845E+01
 -1        42 5.71366E+01
 -1        43 6.61845E+01
 -1        44 5.71366E+01
 -1        45 6.29490E+01
 -1        46 5.71592E+01
 -1        47 6.29490E+01
 -1        48 5.71592E+01
 -1        49 6.16815E+01
 -1        50 5.83409E+01
 -1        51 6.16815E+01
 -1        52 5.83409E+01
 -1        53 6.15436E+01
 -1        54 5.93712E+01
 -1        55 6.15436E+01
 -1        56 5.93712E+01
 -1        57 6.11634E+01
 -1        58 6.08146E+01
 -1        59 6.11634E+01
 -1        60 6.08146E+01
 -1        61 6.18937E+01
 -1        62 6.18937E+01
 -1        63 6.18937E+01
 -1        64 6.18937E+01
 -1        65 6.18937E+01
 -1        66 6.18937E+01
 -1        67 6.18937E+01
 -1        68 6.18937E+01
 -1        69 6.10727E+01
 -1        70 6.10727E+01
 -1        71 6.10727E+01
 -1        72 6.10727E+01
 -1        73 5.83970E+01
 -1        74 5.73237E+01
 -1        75 5.83970E+01
 -1        76 5.73237E+01
 -1        77 7.96080E+01
 -1        78 7.96080E+01
 -1        79 7.96080E+01
 -1        80 7.96080E+01
 -1        81 7.96080E+01
 -1        82 7.96080E+01
 -1        83 7.96080E+01
 -1        84 7.96080E+01
 -1        85 6.48411E+01
 -1        86 6.48411E+01
 -1        87 6.48411E+01
 -1        88 6.48411E+01
 -1        89 6.15790E+01
 -1        90 6.15790E+01
 -1        91 6.06866E+01
 -1        92 6.06866E+01
 -1        93 5.80498E+01
 -1        94 5.80498E+01
 -1        95 5.27260E+01
 -1        96 5.27260E+01
 -1        97 3.73214E+01
 -1        98 3.73214E+01
 -1        99 5.54784E+01
 -1       100 5.54784E+01
 -1       101 6.79412E+01
 -1       102 6.79412E+01
 -1       103 6.79412E+01
 -1       104 6.79412E+01
 -1       105 6.61845E+01
 -1       106 6.61845E+01
 -1       107 6.29490E+01
 -1       108 6.29490E+01
 -1       109 6.16815E+01
 -1       110 6.16815E+01
 -1       111 6.15436E+01
 -1       112 6.15436E+01
 -1       113 6.11634E+01
 -1       114 6.11634E+01
 -1       115 6.11887E+01
 -1       116 6.11887E+01
 -1       117 6.11887E+01
 -1       118 6.11887E+01
 -1       119 6.08228E+01
 -1       120 6.08228E+01
 -1       121 5.83970E+01
 -1       122 5.83970E+01
 -1       123 4.04572E+01
 -1       124 4.04572E+01
 -1       125 3.87705E+01
 -1       126 3.87705E+01
 -3
    1PSTEP                        93          24           3          
  100CL  124 4.40000E-01         126                     1   24           1
 -4  DISP        4    1
 -5  D1          1    2    1    0
 -5  D2          1    2    2    0
 -5  D3          1    2    3    0
 -5  ALL         1    2    0    0    1ALL
 -1         1 0.00000E+00 0.00000E+00 0.00000E+00
 -1         2 0.00000E+00 0.00000E+00 0.00000E+00
 -1         3 1.34460E-03 0.00000E+00-2.53714E-06
 -1         4 1.78768E-03 0.00000E+00-2.08790E-03
 -1         5 0.00000E+00 0.00000E+00 0.00000E+00
 -1         6 0.00000E+00 0.00000E+00 0.00000E+00
 -1         7 1.34463E-03 0.00000E+00-2.53507E-06
 -1         8 1.78772E-03 0.00000E+00-2.08791E-03
 -1         9 4.88972E-03 0.00000E+00-7.72691E-05
 -1        10 5.01218E-03 0.00000E+00-3.89543E-03
 -1        11 4.88972E-03 0.00000E+00-7.72731E-05
 -1        12 5.01221E-03 0.00000E+00-3.89544E-03
 -1        13 9.79817E-03 0.00000E+00-2.66552E-04
 -1        14 9.74746E-03 0.00000E+00-5.33056E-03
 -1        15 9.79817E-03 0.00000E+00-2.66553E-04
 -1        16 9.74749E-03 0.00000E+00-5.33058E-03
 -1        17 1.57067E-02 0.00000E+00-5.64336E-04
 -1        18 1.54832E-02 0.00000E+00-6.47565E-03
 -1        19 1.57068E-02 0.00000E+00-5.64337E-04
 -1        20 1.54832E-02 0.00000E+00-6.47566E-03
 -1        21 2.22286E-02 0.00000E+00-9.41567E-04
 -1        22 2.18794E-02 0.00000E+00-7.36115E-03
 -1        23 2.22285E-02 0.00000E+00-9.41572E-04
 -1        24 2.18795E-02 0.00000E+00-7.36114E-03
 -1        25 2.90605E-02 0.00000E+00-1.36494E-03
 -1        26 2.86289E-02 0.00000E+00-8.01741E-03
 -1        27 2.90605E-02 0.00000E+00-1.36495E-03
 -1        28 2.86289E-02 0.00000E+00-8.01740E-03
 -1        29 3.59660E-02 0.00000E+00-1.80352E-03
 -1        30 3.54913E-02 0.00000E+00-8.46722E-03
 -1        31 3.59660E-02 0.00000E+00-1.80351E-03
 -1        32 3.54913E-02 0.00000E+00-8.46722E-03
 -1        33 4.27542E-02 0.00000E+00-2.23240E-03
 -1        34 4.22686E-02 0.00000E+00-8.72345E-03
 -1        35 4.27542E-02 0.00000E+00-2.23240E-03
 -1        36 4.22686E-02 0.00000E+00-8.72346E-03
 -1        37 4.92505E-02 0.00000E+00-2.62934E-03
 -1        38 4.87805E-02 0.00000E+00-8.79900E-03
 -1        39 4.92506E-02 0.00000E+00-2.62935E-03
 -1        40 4.87806E-02 0.00000E+00-8.79899E-03
 -1        41 5.53101E-02 0.00000E+00-2.97830E-03
 -1        42 5.48780E-02 0.00000E+00-8.72643E-03
 -1        43 5.53101E-02 0.00000E+00-2.97830E-03
 -1        44 5.48780E-02 0.00000E+00-8.72641E-03
 -1        45 6.08589E-02 0.00000E+00-3.27507E-03
 -1        46 6.04782E-02 0.00000E+00-8.55948E-03
 -1        47 6.08589E-02 0.00000E+00-3.27507E-03
 -1        48 6.04782E-02 0.00000E+00-8.55948E-03
 -1        49 6.58996E-02 0.00000E+00-3.52483E-03
 -1        50 6.55731E-02 0.00000E+00-8.35023E-03
 -1        51 6.58996E-02 0.00000E+00-3.52483E-03
 -1        52 6.55732E-02 0.00000E+00-8.35025E-03
 -1        53 7.04790E-02 0.00000E+00-3.73658E-03
 -1        54 7.02027E-02 0.00000E+00-8.12835E-03
 -1        55 7.04791E-02 0.00000E+00-3.73657E-03
 -1        56 7.02027E-02 0.00000E+00-8.12833E-03
 -1        57 7.46350E-02 0.00000E+00-3.91627E-03
 -1        58 7.44015E-02 0.00000E+00-7.90521E-03
 -1        59 7.46350E-02 0.00000E+00-3.91628E-03
 -1        60 7.44016E-02 0.00000E+00-7.90518E-03
 -1        61 7.83914E-02 0.00000E+00-4.06664E-03
 -1        62 7.81966E-02 0.00000E+00-7.69153E-03
 -1        63 7.83914E-02 0.00000E+00-4.06666E-03
 -1        64 7.81966E-02 0.00000E+00-7.69152E-03
 -1        65 8.17867E-02 0.00000E+00-4.19145E-03
 -1        66 8.16283E-02 0.00000E+00-7.50705E-03
 -1        67 8.17867E-02 0.00000E+00-4.19146E-03
 -1        68 8.16283E-02 0.00000E+00-7.50703E-03
 -1        69 8.48922E-02 0.00000E+00-4.29622E-03
 -1        70 8.47654E-02 0.00000E+00-7.37470E-03
 -1        71 8.48922E-02 0.00000E+00-4.29623E-03
 -1        72 8.47654E-02 0.00000E+00-7.37473E-03
 -1        73 8.78018E-02 0.00000E+00-4.38619E-03
 -1        74 8.76967E-02 0.00000E+00-7.30515E-03
 -1        75 8.78018E-02 0.00000E+00-4.38621E-03
 -1        76 8.76967E-02 0.00000E+00-7.30512E-03
 -1        77 9.06028E-02 0.00000E+00-4.46350E-03
 -1        78 9.05276E-02 0.00000E+00-7.30642E-03
 -1        79 9.06028E-02 0.00000E+00-4.46349E-03
 -1        80 9.05276E-02 0.00000E+00-7.30642E-03
 -1        81 9.34058E-02 0.00000E+00-4.54135E-03
 -1        82 9.32858E-02 0.00000E+00-7.33695E-03
 -1        83 9.34058E-02 0.00000E+00-4.54134E-03
 -1        84 9.32858E-02 0.00000E+00-7.33691E-03
 -1        85 0.00000E+00 0.00000E+00 0.00000E+00
 -1        86 1.94093E-03 0.00000E+00 2.04143E-03
 -1        87 0.00000E+00 0.00000E+00 0.00000E+00
 -1        88 1.94092E-03 0.00000E+00 2.04141E-03
 -1        89 5.36955E-03 0.00000E+00 3.67671E-03
 -1        90 5.36952E-03 0.00000E+00 3.67670E-03
 -1        91 1.03121E-02 0.00000E+00 4.73506E-03
 -1        92 1.03121E-02 0.00000E+00 4.73506E-03
 -1        93 1.62281E-02 0.00000E+00 5.30174E-03
 -1        94 1.62281E-02 0.00000E+00 5.30175E-03
 -1        95 2.27453E-02 0.00000E+00 5.45075E-03
 -1        96 2.27453E-02 0.00000E+00 5.45074E-03
 -1        97 2.95533E-02 0.00000E+00 5.27615E-03
 -1        98 2.95533E-02 0.00000E+00 5.27614E-03
 -1        99 3.64151E-02 0.00000E+00 4.86112E-03
 -1       100 3.64151E-02 0.00000E+00 4.86113E-03
 -1       101 4.31419E-02 0.00000E+00 4.26958E-03
 -1       102 4.31419E-02 0.00000E+00 4.26959E-03
 -1       103 4.95673E-02 0.00000E+00 3.55758E-03
 -1       104 4.95672E-02 0.00000E+00 3.55758E-03
 -1       105 5.55574E-02 0.00000E+00 2.78873E-03
 -1       106 5.55574E-02 0.00000E+00 2.78874E-03
 -1       107 6.10477E-02 0.00000E+00 2.02653E-03
 -1       108 6.10477E-02 0.00000E+00 2.02654E-03
 -1       109 6.60422E-02 0.00000E+00 1.31474E-03
 -1       110 6.60422E-02 0.00000E+00 1.31476E-03
 -1       111 7.05843E-02 0.00000E+00 6.67817E-04
 -1       112 7.05843E-02 0.00000E+00 6.67825E-04
 -1       113 7.47118E-02 0.00000E+00 8.42714E-05
 -1       114 7.47118E-02 0.00000E+00 8.42704E-05
 -1       115 7.84487E-02 0.00000E+00-4.32833E-04
 -1       116 7.84487E-02 0.00000E+00-4.32836E-04
 -1       117 8.18352E-02 0.00000E+00-8.68971E-04
 -1       118 8.18352E-02 0.00000E+00-8.68992E-04
 -1       119 8.49436E-02 0.00000E+00-1.21047E-03
 -1       120 8.49436E-02 0.00000E+00-1.21047E-03
 -1       121 8.78596E-02 0.00000E+00-1.45525E-03
 -1       122 8.78596E-02 0.00000E+00-1.45525E-03
 -1       123 9.06869E-02 0.00000E+00-1.61277E-03
 -1       124 9.06869E-02 0.00000E+00-1.61277E-03
 -1       125 9.34424E-02 0.00000E+00-1.70654E-03
 -1       126 9.34424E-02 0.00000E+00-1.70658E-03
 -3
    1PSTEP                        94          24           3          
  100CL  124 4.40000E-01         126                     1   24           1
 -4  STRESS      6    1
 -5  SXX         1    4    1    1
 -5  SYY         1    4    2    2
 -5  SZZ         1    4    3    3
 -5  SXY         1    4    1    2
 -5  SYZ         1    4    2    3
 -5  SZX         1    4    3    1
 -1         1-9.37150E+03-9.69026E+03-2.11090E+04-1.12906E-04 1.78596E-04 4.78891E+03
 -1         2 2.27942E+02 7.18043E+01-1.85458E+02 1.80929E-05 1.26005E-04 4.12793E+03
 -1         3 8.82827E+01-1.55330E+01-2.05707E+02 1.85344E-02 1.27818E-03 1.15765E+03
 -1         4-3.26142E+03-6.42955E+03-1.71336E+04 2.41836E-02-2.21486E-03 9.10389E+02
 -1         5-9.37150E+03-9.69028E+03-2.11090E+04-1.12908E-04 1.78597E-04 4.78903E+03
 -1         6 2.27970E+02 7.18184E+01-1.85423E+02 1.80892E-05 1.26004E-04 4.12805E+03
 -1         7 8.85215E+01-1.54325E+01-2.05625E+02 1.85344E-02 1.27818E-03 1.15767E+03
 -1         8-3.26132E+03-6.42952E+03-1.71336E+04 2.41836E-02-2.21485E-03 9.10422E+02
 -1         9 1.50389E+02 7.18336E+01-1.81106E+00-1.41423E-03-2.09442E-03 1.34734E+03
 -1        10-3.72921E+03-5.50113E+03-1.39233E+04 2.00679E-02-5.01243E-03 7.63551E+01
 -1        11 1.50716E+02 7.19673E+01-1.68970E+00-1.41423E-03-2.09442E-03 1.34729E+03
 -1        12-3.72877E+03-5.50096E+03-1.39232E+04 2.00679E-02-5.01244E-03 7.63067E+01
 -1        13 2.21999E+02 1.07663E+02 1.02165E+02 2.94817E-04-6.92377E-04 1.15206E+03
 -1        14-2.31886E+03-3.71380E+03-9.73275E+03 1.66522E-02-8.68580E-03 1.29245E+02
 -1        15 2.22352E+02 1.07821E+02 1.02338E+02 2.94818E-04-6.92377E-04 1.15204E+03
 -1        16-2.31850E+03-3.71364E+03-9.73258E+03 1.66522E-02-8.68581E-03 1.29197E+02
 -1        17 2.35729E+02 1.21555E+02 1.57193E+02 6.40056E-03-4.62584E-04 1.00591E+03
 -1        18-1.47796E+03-2.37823E+03-6.31110E+03 2.34304E-02-5.94291E-03 1.77512E+02
 -1        19 2.36102E+02 1.21714E+02 1.57350E+02 6.40057E-03-4.62586E-04 1.00584E+03
 -1        20-1.47754E+03-2.37801E+03-6.31080E+03 2.34304E-02-5.94292E-03 1.77456E+02
 -1        21 2.21444E+02 1.22614E+02 1.87202E+02-7.23280E-03-2.43869E-03 8.38878E+02
 -1        22-7.25966E+02-1.24653E+03-3.38626E+03 1.05814E-02 4.98129E-03 2.95935E+02
 -1        23 2.21815E+02 1.22765E+02 1.87334E+02-7.23282E-03-2.43869E-03 8.38863E+02
 -1        24-7.25573E+02-1.24635E+03-3.38603E+03 1.05814E-02 4.98129E-03 2.95942E+02
 -1        25 1.87848E+02 1.12586E+02 1.91441E+02-2.38338E-03-2.61073E-03 6.90255E+02
 -1        26-1.35131E+02-3.42290E+02-9.96923E+02 1.39274E-02 2.81658E-03 4.16504E+02
 -1        27 1.88158E+02 1.12730E+02 1.91611E+02-2.38338E-03-2.61073E-03 6.90283E+02
 -1        28-1.34825E+02-3.42181E+02-9.96866E+02 1.39274E-02 2.81658E-03 4.16532E+02
 -1        29 1.56299E+02 9.83936E+01 1.75033E+02-2.36291E-03 2.90999E-03 5.69265E+02
 -1        30 3.47767E+02 3.91161E+02 9.65544E+02 1.45364E-02-2.31286E-03 5.28546E+02
 -1        31 1.56641E+02 9.85500E+01 1.75212E+02-2.36292E-03 2.90999E-03 5.69253E+02
 -1        32 3.48110E+02 3.91293E+02 9.65643E+02 1.45365E-02-2.31286E-03 5.28534E+02
 -1        33 1.24322E+02 8.06194E+01 1.44703E+02 5.78587E-03 4.46179E-05 4.53884E+02
 -1        34 7.30528E+02 9.84032E+02 2.57771E+03 2.57145E-02-4.14328E-03 6.02819E+02
 -1        35 1.24730E+02 8.07850E+01 1.44846E+02 5.78588E-03 4.46166E-05 4.53841E+02
 -1        36 7.30977E+02 9.84241E+02 2.57796E+03 2.57145E-02-4.14329E-03 6.02791E+02
 -1        37 8.06317E+01 5.94042E+01 1.14097E+02 2.71590E-03-2.56220E-03 3.10537E+02
 -1        38 9.91747E+02 1.41872E+03 3.78937E+03 1.77117E-02 3.55897E-03 5.99343E+02
 -1        39 8.09405E+01 5.95454E+01 1.14259E+02 2.71591E-03-2.56220E-03 3.10482E+02
 -1        40 9.92084E+02 1.41889E+03 3.78962E+03 1.77117E-02 3.55897E-03 5.99307E+02
 -1        41 3.83071E+01 3.95257E+01 8.71814E+01-1.20101E-02 3.83963E-03 1.46089E+02
 -1        42 1.12676E+03 1.66235E+03 4.48289E+03 3.74503E-03 1.01030E-02 5.12090E+02
 -1        43 3.86243E+01 3.96685E+01 8.73388E+01-1.20101E-02 3.83963E-03 1.46097E+02
 -1        44 1.12708E+03 1.66247E+03 4.48299E+03 3.74504E-03 1.01030E-02 5.12137E+02
 -1        45 8.05175E+00 2.12338E+01 5.47477E+01 3.42056E-03 5.55913E-04 6.70617E+00
 -1        46 1.15087E+03 1.71833E+03 4.64805E+03 2.45525E-02 1.68962E-03 3.85259E+02
 -1        47 8.39932E+00 2.13680E+01 5.48489E+01 3.42056E-03 5.55914E-04 6.71221E+00
 -1        48 1.15123E+03 1.71843E+03 4.64804E+03 2.45526E-02 1.68962E-03 3.85271E+02
 -1        49-3.15639E+00 5.35227E+00 1.26072E+01 1.18291E-03-2.60497E-03-6.94120E+01
 -1        50 1.10951E+03 1.65186E+03 4.46070E+03 1.19053E-02-8.48123E-03 2.78576E+02
 -1        51-2.93495E+00 5.45598E+00 1.27306E+01 1.18291E-03-2.60497E-03-6.94696E+01
 -1        52 1.10977E+03 1.65201E+03 4.46092E+03 1.19054E-02-8.48124E-03 2.78504E+02
 -1        53 2.90052E+00-5.52597E+00-2.88519E+01 6.09081E-03 1.97864E-03-9.59703E+01
 -1        54 1.04622E+03 1.53881E+03 4.13763E+03 1.36605E-02 1.30264E-02 2.06719E+02
 -1        55 3.12520E+00-5.43812E+00-2.87833E+01 6.09082E-03 1.97864E-03-9.59869E+01
 -1        56 1.04647E+03 1.53897E+03 4.13792E+03 1.36605E-02 1.30265E-02 2.06783E+02
 -1        57 7.33631E-01-1.48801E+01-5.63152E+01-1.12141E-02-4.95295E-03-1.21907E+02
 -1        58 9.53883E+02 1.40041E+03 3.75911E+03 1.05465E-02 1.46223E-02 1.37240E+02
 -1        59 9.70305E-01-1.48241E+01-5.63672E+01-1.12141E-02-4.95295E-03-1.21894E+02
 -1        60 9.54291E+02 1.40056E+03 3.75921E+03 1.05466E-02 1.46223E-02 1.37336E+02
 -1        61 8.20724E-01-1.58980E+01-5.80452E+01-5.00177E-04-1.47881E-02-1.67630E+02
 -1        62 8.37041E+02 1.22725E+03 3.28838E+03 1.05955E-02 6.76630E-03 5.29558E+01
 -1        63 1.12732E+00-1.57670E+01-5.79148E+01-5.00183E-04-1.47881E-02-1.67566E+02
 -1        64 8.37239E+02 1.22731E+03 3.28840E+03 1.05956E-02 6.76630E-03 5.30891E+01
 -1        65 7.92440E+00-9.34743E+00-4.16748E+01 4.78983E-03-4.49898E-03-2.13564E+02
 -1        66 6.96785E+02 1.00425E+03 2.67381E+03 1.35476E-02 9.65726E-03-3.15719E+01
 -1        67 7.95818E+00-9.32118E+00-4.16211E+01 4.78983E-03-4.49897E-03-2.13517E+02
 -1        68 6.96859E+02 1.00422E+03 2.67365E+03 1.35476E-02 9.65725E-03-3.15395E+01
 -1        69 6.84024E+00-3.55932E+00-1.99732E+01-5.81993E-03-8.87665E-03-2.30763E+02
 -1        70 5.30646E+02 7.42350E+02 1.95648E+03-4.58435E-03-1.36289E-02-9.37105E+01
 -1        71 6.90448E+00-3.53799E+00-1.99661E+01-5.81993E-03-8.87665E-03-2.30816E+02
 -1        72 5.30694E+02 7.42383E+02 1.95654E+03-4.58436E-03-1.36289E-02-9.37326E+01
 -1        73 1.15580E+01 9.95161E+00 2.13636E+01 2.55457E-03-7.78428E-03-2.14471E+02
 -1        74 3.13418E+02 4.48559E+02 1.18666E+03 1.58222E-02 1.38887E-02-9.17283E+01
 -1        75 1.17095E+01 1.00485E+01 2.15339E+01 2.55457E-03-7.78428E-03-2.14347E+02
 -1        76 3.13740E+02 4.48721E+02 1.18688E+03 1.58222E-02 1.38887E-02-9.16061E+01
 -1        77 4.69633E+00 1.13168E+01 3.28107E+01 1.67036E-02 4.52987E-03-1.37256E+02
 -1        78 3.31663E+02 3.13088E+02 7.13871E+02-6.58462E-03-1.12585E-03-1.38757E+02
 -1        79 4.82736E+00 1.14140E+01 3.30045E+01 1.67036E-02 4.52987E-03-1.37358E+02
 -1        80 3.31207E+02 3.12914E+02 7.13746E+02-6.58462E-03-1.12586E-03-1.38802E+02
 -1        81 1.08133E+01 8.24001E+00 1.71857E+01-2.96513E-02 8.18961E-03-3.74192E+01
 -1        82-2.52043E+02 1.74520E+01 3.10987E+02 9.11086E-03 2.13426E-02-9.96385E+01
 -1        83 1.08183E+01 8.25499E+00 1.72289E+01-2.96513E-02 8.18962E-03-3.75615E+01
 -1        84-2.51018E+02 1.80032E+01 3.11799E+02 9.11089E-03 2.13426E-02-9.94721E+01
 -1        85 9.81030E+03 9.40225E+03 2.34086E+04-7.44504E-05-1.54880E-05 6.76689E+03
 -1        86 3.15406E+03 6.28749E+03 1.88987E+04-1.53373E-03-1.10020E-02 2.44577E+03
 -1        87 9.81021E+03 9.40216E+03 2.34083E+04-7.44493E-05-1.54875E-05 6.76688E+03
 -1        88 3.15442E+03 6.28762E+03 1.88988E+04-1.53373E-03-1.10020E-02 2.44580E+03
 -1        89 3.65738E+03 5.45253E+03 1.52764E+04-1.29871E-02-7.50554E-03 1.85675E+03
 -1        90 3.65766E+03 5.45267E+03 1.52766E+04-1.29871E-02-7.50554E-03 1.85674E+03
 -1        91 2.58416E+03 3.88124E+03 1.07539E+04-1.50580E-02 2.37160E-03 1.79575E+03
 -1        92 2.58453E+03 3.88142E+03 1.07542E+04-1.50580E-02 2.37160E-03 1.79572E+03
 -1        93 1.81376E+03 2.60984E+03 7.07331E+03-1.37192E-02 5.26430E-03 1.43199E+03
 -1        94 1.81413E+03 2.60999E+03 7.07343E+03-1.37192E-02 5.26431E-03 1.43190E+03
 -1        95 1.06878E+03 1.49363E+03 3.97893E+03-2.75768E-02-3.59459E-03 1.04250E+03
 -1        96 1.06915E+03 1.49376E+03 3.97901E+03-2.75769E-02-3.59458E-03 1.04249E+03
 -1        97 4.29285E+02 5.69730E+02 1.48695E+03-1.33504E-02-4.28297E-03 6.77701E+02
 -1        98 4.29572E+02 5.69877E+02 1.48715E+03-1.33505E-02-4.28298E-03 6.77743E+02
 -1        99-1.03821E+02-1.94523E+02-5.38733E+02-1.56162E-02 6.46989E-03 3.73157E+02
 -1       100-1.03482E+02-1.94341E+02-5.38464E+02-1.56162E-02 6.46990E-03 3.73128E+02
 -1       101-5.39347E+02-8.26193E+02-2.19655E+03-1.44012E-02 9.23958E-03 1.19656E+02
 -1       102-5.38935E+02-8.26024E+02-2.19641E+03-1.44013E-02 9.23959E-03 1.19592E+02
 -1       103-8.76525E+02-1.30942E+03-3.44768E+03-1.26219E-02 8.19634E-04-9.64109E+01
 -1       104-8.76232E+02-1.30930E+03-3.44759E+03-1.26219E-02 8.19640E-04-9.64771E+01
 -1       105-1.08177E+03-1.59720E+03-4.18302E+03-2.57868E-02 4.88350E-03-2.61703E+02
 -1       106-1.08144E+03-1.59704E+03-4.18282E+03-2.57868E-02 4.88351E-03-2.61708E+02
 -1       107-1.15285E+03-1.69014E+03-4.41494E+03-9.73703E-03 8.33540E-03-3.53880E+02
 -1       108-1.15251E+03-1.68998E+03-4.41472E+03-9.73705E-03 8.33540E-03-3.53880E+02
 -1       109-1.12278E+03-1.65048E+03-4.31585E+03-7.64061E-03 1.15216E-02-3.71534E+02
 -1       110-1.12260E+03-1.65041E+03-4.31579E+03-7.64062E-03 1.15216E-02-3.71626E+02
 -1       111-1.03998E+03-1.55329E+03-4.08125E+03-1.00624E-02 3.61925E-03-3.45576E+02
 -1       112-1.03971E+03-1.55320E+03-4.08123E+03-1.00625E-02 3.61926E-03-3.45636E+02
 -1       113-9.52437E+02-1.43520E+03-3.78262E+03-2.05185E-02-4.66164E-04-3.21079E+02
 -1       114-9.52266E+02-1.43514E+03-3.78258E+03-2.05185E-02-4.66157E-04-3.21132E+02
 -1       115-8.33099E+02-1.26432E+03-3.34249E+03-1.75228E-02-1.05485E-03-3.10756E+02
 -1       116-8.32754E+02-1.26419E+03-3.34242E+03-1.75228E-02-1.05485E-03-3.10751E+02
 -1       117-6.66410E+02-1.01892E+03-2.70406E+03 1.19515E-02-1.06942E-02-2.96607E+02
 -1       118-6.66548E+02-1.01898E+03-2.70411E+03 1.19515E-02-1.06942E-02-2.96550E+02
 -1       119-4.86835E+02-7.29957E+02-1.93253E+03-1.19215E-02 1.04316E-03-2.69598E+02
 -1       120-4.86678E+02-7.29871E+02-1.93240E+03-1.19215E-02 1.04317E-03-2.69669E+02
 -1       121-2.64218E+02-4.16661E+02-1.11963E+03 7.91943E-03-4.80368E-03-2.06875E+02
 -1       122-2.64329E+02-4.16708E+02-1.11967E+03 7.91944E-03-4.80368E-03-2.06897E+02
 -1       123-2.70279E+02-2.32689E+02-5.03811E+02-1.39450E-02 1.18917E-03-1.89097E+02
 -1       124-2.69724E+02-2.32500E+02-5.03737E+02-1.39451E-02 1.18917E-03-1.89098E+02
 -1       125 3.63598E+02 1.20376E+02 3.88090E+01 5.42999E-03-2.35869E-02-2.54171E+02
 -1       126 3.62646E+02 1.19832E+02 3.79465E+01 5.42996E-03-2.35869E-02-2.53859E+02
 -3
    1PSTEP                        95          24           3          
  100CL  124 4.40000E-01         126                     1   24           1
 -4  TOSTRAIN    6    1
 -5  EXX         1    4    1    1
 -5  EYY         1    4    2    2
 -5  EZZ         1    4    3    3
 -5  EXY         1    4    1    2
 -5  EYZ         1    4    2    3
 -5  EZX         1    4    3    1
 -1         1-1.51661E-04-2.03568E-15-4.03976E-02-1.75803E-10-1.40682E-14 1.78765E-02
 -1         2-1.51291E-04-1.04065E-15 1.59519E-04 3.82696E-11 1.68956E-13 1.34457E-02
 -1         3-7.50626E-04 5.06152E-15 5.39412E-04 5.98363E-08 6.48103E-09 3.78023E-03
 -1         4 9.64284E-03 1.12280E-14-3.69590E-02 7.91096E-08-4.34435E-09 5.24143E-03
 -1         5-1.51662E-04-2.03568E-15-4.03977E-02-1.75806E-10-1.40680E-14 1.78769E-02
 -1         6-1.51290E-04-1.04065E-15 1.59581E-04 3.82646E-11 1.68956E-13 1.34460E-02
 -1         7-7.50137E-04 5.06152E-15 5.39355E-04 5.98364E-08 6.48103E-09 3.78030E-03
 -1         8 9.64307E-03 1.12280E-14-3.69591E-02 7.91096E-08-4.34432E-09 5.24157E-03
 -1         9-7.58623E-04-1.62501E-15 9.53505E-04-4.13336E-09-7.00094E-09 4.35586E-03
 -1        10 5.28935E-03 7.43247E-15-2.86893E-02 6.65491E-08-1.16939E-08 2.95272E-03
 -1        11-7.57983E-04-1.62501E-15 9.53446E-04-4.13336E-09-7.00094E-09 4.35572E-03
 -1        12 5.29020E-03 7.43247E-15-2.86895E-02 6.65492E-08-1.16939E-08 2.95262E-03
 -1        13-5.92216E-04-1.06864E-15 1.00353E-03 1.10285E-09-2.10751E-09 3.69664E-03
 -1        14 4.07620E-03 6.26421E-15-1.99714E-02 5.69302E-08-2.31932E-08 2.96834E-03
 -1        15-5.91578E-04-1.06864E-15 1.00358E-03 1.10285E-09-2.10751E-09 3.69664E-03
 -1        16 4.07687E-03 6.26421E-15-1.99714E-02 5.69303E-08-2.31932E-08 2.96824E-03
 -1        17-4.98410E-04-8.34966E-16 1.00038E-03 2.07594E-08 1.00511E-09 3.19937E-03
 -1        18 2.51024E-03 1.06687E-14-1.27320E-02 7.80757E-08-1.03464E-08 2.47575E-03
 -1        19-4.97665E-04-8.34966E-16 1.00032E-03 2.07594E-08 1.00511E-09 3.19923E-03
 -1        20 2.51092E-03 1.06687E-14-1.27318E-02 7.80758E-08-1.03464E-08 2.47560E-03
 -1        21-4.18149E-04-4.84942E-16 9.41397E-04-2.22822E-08-1.08700E-08 2.64390E-03
 -1        22 1.27871E-03 1.08964E-15-6.65481E-03 3.19532E-08 2.06326E-08 2.06353E-03
 -1        23-4.17434E-04-4.84942E-16 9.41335E-04-2.22823E-08-1.08700E-08 2.64395E-03
 -1        24 1.27936E-03 1.08964E-15-6.65466E-03 3.19532E-08 2.06326E-08 2.06362E-03
 -1        25-3.66315E-04-5.30781E-16 8.52678E-04-6.51892E-09-9.44662E-09 2.15720E-03
 -1        26 2.55334E-04 3.17232E-15-1.73365E-03 4.35975E-08 1.51107E-08 1.68283E-03
 -1        27-3.65807E-04-5.30781E-16 8.52794E-04-6.51892E-09-9.44662E-09 2.15735E-03
 -1        28 2.55935E-04 3.17232E-15-1.73379E-03 4.35976E-08 1.51107E-08 1.68302E-03
 -1        29-3.13518E-04-7.36909E-16 7.39061E-04-8.89539E-09 8.34612E-09 1.77244E-03
 -1        30-5.68082E-04 3.23982E-15 2.26816E-03 4.78180E-08-1.13868E-09 1.38441E-03
 -1        31-3.12912E-04-7.36909E-16 7.39134E-04-8.89540E-09 8.34611E-09 1.77247E-03
 -1        32-5.67401E-04 3.23982E-15 2.26806E-03 4.78180E-08-1.13867E-09 1.38448E-03
 -1        33-2.55906E-04-1.01362E-15 6.01885E-04 1.86466E-08 2.57226E-09 1.41406E-03
 -1        34-1.24077E-03 1.24924E-14 5.52069E-03 8.45659E-08-2.48012E-09 1.10554E-03
 -1        35-2.55096E-04-1.01362E-15 6.01793E-04 1.86467E-08 2.57226E-09 1.41403E-03
 -1        36-1.23998E-03 1.24924E-14 5.52081E-03 8.45659E-08-2.48011E-09 1.10554E-03
 -1        37-2.05801E-04-1.05069E-15 4.56199E-04 9.83123E-09-7.18905E-09 9.63450E-04
 -1        38-1.74796E-03 5.36242E-15 7.92491E-03 5.56152E-08 1.83914E-08 7.59545E-04
 -1        39-2.05221E-04-1.05069E-15 4.56231E-04 9.83124E-09-7.18906E-09 9.63335E-04
 -1        40-1.74741E-03 5.36242E-15 7.92513E-03 5.56153E-08 1.83914E-08 7.59470E-04
 -1        41-1.46254E-04 1.64454E-15 3.07716E-04-4.01844E-08 7.93189E-09 4.43207E-04
 -1        42-2.00355E-03 8.22788E-17 9.24572E-03 8.30644E-09 3.36675E-08 3.63881E-04
 -1        43-1.45694E-04 1.64454E-15 3.07775E-04-4.01844E-08 7.93189E-09 4.43292E-04
 -1        44-2.00297E-03 8.22788E-17 9.24569E-03 8.30646E-09 3.36675E-08 3.64103E-04
 -1        45-8.10284E-05-1.36524E-15 1.62314E-04 1.09077E-08 2.99558E-09 4.95422E-06
 -1        46-2.00671E-03 9.93526E-15 9.49374E-03 7.86734E-08 1.37806E-08 2.57205E-05
 -1        47-8.03499E-05-1.36524E-15 1.62217E-04 1.09077E-08 2.99558E-09 5.05752E-06
 -1        48-2.00590E-03 9.93526E-15 9.49341E-03 7.86734E-08 1.37807E-08 2.58834E-05
 -1        49-1.38738E-05-5.85105E-16 2.69594E-05 4.66695E-09-8.11491E-09-2.26567E-04
 -1        50-1.85696E-03 2.83962E-15 9.05281E-03 4.11197E-08-2.34633E-08-1.56867E-04
 -1        51-1.34569E-05-5.85105E-16 2.69915E-05 4.66695E-09-8.11490E-09-2.26719E-04
 -1        52-1.85653E-03 2.83962E-15 9.05301E-03 4.11197E-08-2.34633E-08-1.57075E-04
 -1        53 5.55042E-05-4.71817E-16-8.83285E-05 1.91831E-08 8.15973E-09-2.98288E-04
 -1        54-1.65947E-03 6.13855E-15 8.36037E-03 4.04632E-08 4.56203E-08-2.15142E-04
 -1        55 5.59491E-05-4.71817E-16-8.83931E-05 1.91831E-08 8.15973E-09-2.98298E-04
 -1        56-1.65921E-03 6.13855E-15 8.36081E-03 4.04633E-08 4.56203E-08-2.14950E-04
 -1        57 8.98842E-05 5.95660E-16-1.61844E-04-3.50229E-08-1.89204E-08-3.76591E-04
 -1        58-1.48039E-03 3.74356E-15 7.57584E-03 3.03929E-08 4.97117E-08-2.80958E-04
 -1        59 9.04644E-05 5.95660E-16-1.62182E-04-3.50229E-08-1.89203E-08-3.76473E-04
 -1        60-1.47960E-03 3.74356E-15 7.57572E-03 3.03930E-08 4.97117E-08-2.80570E-04
 -1        61 1.13255E-04 2.32990E-15-1.87959E-04 1.84386E-09-4.80058E-08-5.25417E-04
 -1        62-1.26453E-03 1.18611E-15 6.60345E-03 3.27414E-08 2.43359E-08-4.00470E-04
 -1        63 1.13791E-04 2.32990E-15-1.87927E-04 1.84385E-09-4.80058E-08-5.25166E-04
 -1        64-1.26416E-03 1.18611E-15 6.60336E-03 3.27415E-08 2.43359E-08-4.00001E-04
 -1        65 1.34077E-04 7.22849E-17-1.78491E-04 1.64840E-08-1.35190E-08-6.77500E-04
 -1        66-9.66589E-04 3.43470E-15 5.33262E-03 4.18449E-08 3.40324E-08-5.20906E-04
 -1        67 1.34082E-04 7.22849E-17-1.78382E-04 1.64840E-08-1.35190E-08-6.77357E-04
 -1        68-9.66285E-04 3.43470E-15 5.33220E-03 4.18449E-08 3.40324E-08-5.20755E-04
 -1        69 1.18298E-04 2.02706E-15-1.35868E-04-1.71383E-08-2.99930E-08-7.39047E-04
 -1        70-6.38157E-04 1.01689E-15 3.86315E-03-1.21814E-08-4.49031E-08-5.81852E-04
 -1        71 1.18458E-04 2.02706E-15-1.35936E-04-1.71383E-08-2.99930E-08-7.39204E-04
 -1        72-6.38097E-04 1.01689E-15 3.86323E-03-1.21814E-08-4.49031E-08-5.81921E-04
 -1        73 8.31420E-05 1.16863E-16-4.08448E-05 9.73715E-09-2.47393E-08-6.93985E-04
 -1        74-3.96367E-04 4.60448E-15 2.34340E-03 4.87234E-08 4.79559E-08-4.58884E-04
 -1        75 8.32748E-05 1.16863E-16-4.05582E-05 9.73714E-09-2.47393E-08-6.93588E-04
 -1        76-3.95899E-04 4.60448E-15 2.34364E-03 4.87235E-08 4.79559E-08-4.58474E-04
 -1        77 2.90193E-05 1.09240E-15 1.96867E-05 5.33742E-08 1.77844E-08-4.48444E-04
 -1        78 1.14238E-04-1.83689E-15 1.24406E-03-2.11624E-08-4.87691E-09-5.16645E-04
 -1        79 2.91653E-05 1.09240E-15 1.99622E-05 5.33742E-08 1.77843E-08-4.48784E-04
 -1        80 1.13344E-04-1.83689E-15 1.24420E-03-2.11624E-08-4.87690E-09-5.16850E-04
 -1        81 2.07254E-05 8.21538E-15 1.54896E-05-9.76968E-08 2.11417E-08-1.21626E-04
 -1        82-8.35499E-04 5.27710E-15 9.10846E-04 2.57533E-08 7.08565E-08-4.23707E-04
 -1        83 2.07480E-05 8.21538E-15 1.55300E-05-9.76968E-08 2.11418E-08-1.22094E-04
 -1        84-8.34018E-04 5.27710E-15 9.11755E-04 2.57533E-08 7.08566E-08-4.23128E-04
 -1        85-1.50922E-04-6.75298E-17 4.22634E-02-2.36353E-10 1.73733E-13 1.94089E-02
 -1        86-1.11441E-02 1.51078E-16 3.88781E-02-3.37339E-09-3.44243E-08 5.33613E-03
 -1        87-1.50917E-04-6.75298E-17 4.22630E-02-2.36350E-10 1.73733E-13 1.94089E-02
 -1        88-1.11433E-02 1.51078E-16 3.88780E-02-3.37340E-09-3.44243E-08 5.33626E-03
 -1        89-6.80660E-03 3.64188E-15 3.08585E-02-3.99417E-08-2.64442E-08 2.90296E-03
 -1        90-6.80617E-03 3.64188E-15 3.08587E-02-3.99417E-08-2.64442E-08 2.90293E-03
 -1        91-5.26063E-03 3.94587E-15 2.22982E-02-4.93848E-08 2.70104E-09 2.90561E-03
 -1        92-5.26003E-03 3.94587E-15 2.22984E-02-4.93848E-08 2.70104E-09 2.90556E-03
 -1        93-3.50706E-03 2.58657E-15 1.49212E-02-4.63220E-08 1.15689E-08 2.43721E-03
 -1        94-3.50625E-03 2.58657E-15 1.49210E-02-4.63220E-08 1.15689E-08 2.43704E-03
 -1        95-2.11501E-03 1.40261E-14 8.62582E-03-8.72302E-08-2.28111E-08 2.03067E-03
 -1        96-2.11423E-03 1.40261E-14 8.62563E-03-8.72303E-08-2.28111E-08 2.03075E-03
 -1        97-9.87964E-04 3.16085E-15 3.46604E-03-4.10784E-08-1.94974E-08 1.65581E-03
 -1        98-9.87549E-04 3.16085E-15 3.46626E-03-4.10784E-08-1.94974E-08 1.65597E-03
 -1        99-5.89543E-05 5.19933E-15-7.80628E-04-5.31623E-08 1.40919E-08 1.35718E-03
 -1       100-5.84231E-05 5.19933E-15-7.80369E-04-5.31624E-08 1.40919E-08 1.35712E-03
 -1       101 7.28961E-04 4.37550E-15-4.29825E-03-5.03861E-08 2.38175E-08 1.07876E-03
 -1       102 7.29789E-04 4.37550E-15-4.29835E-03-5.03861E-08 2.38175E-08 1.07867E-03
 -1       103 1.33635E-03 2.05853E-15-6.98655E-03-4.10611E-08-2.48574E-09 7.31171E-04
 -1       104 1.33696E-03 2.05853E-15-6.98666E-03-4.10611E-08-2.48573E-09 7.31039E-04
 -1       105 1.71105E-03 1.30731E-14-8.59736E-03-8.51892E-08 6.20486E-09 3.30772E-04
 -1       106 1.71159E-03 1.30731E-14-8.59721E-03-8.51892E-08 6.20486E-09 3.30802E-04
 -1       107 1.84466E-03 2.20981E-15-9.12939E-03-3.43570E-08 2.38929E-08-8.71833E-06
 -1       108 1.84520E-03 2.20981E-15-9.12922E-03-3.43571E-08 2.38929E-08-8.67442E-06
 -1       109 1.82922E-03 3.05068E-15-8.94354E-03-2.83418E-08 3.52184E-08-1.90978E-04
 -1       110 1.82961E-03 3.05068E-15-8.94364E-03-2.83418E-08 3.52184E-08-1.91237E-04
 -1       111 1.77048E-03 1.22043E-15-8.46777E-03-3.36197E-08 8.92021E-09-2.45036E-04
 -1       112 1.77111E-03 1.22043E-15-8.46803E-03-3.36197E-08 8.92022E-09-2.45156E-04
 -1       113 1.66016E-03 8.34410E-15-7.85045E-03-6.64256E-08-6.95334E-09-3.03574E-04
 -1       114 1.66053E-03 8.34410E-15-7.85055E-03-6.64256E-08-6.95333E-09-3.03714E-04
 -1       115 1.49104E-03 3.45999E-15-6.94711E-03-5.65930E-08-7.63830E-09-4.15590E-04
 -1       116 1.49174E-03 3.45999E-15-6.94726E-03-5.65930E-08-7.63833E-09-4.15507E-04
 -1       117 1.23474E-03 2.62629E-15-5.63507E-03 4.10562E-08-3.23112E-08-5.23462E-04
 -1       118 1.23445E-03 2.62629E-15-5.63502E-03 4.10562E-08-3.23112E-08-5.23296E-04
 -1       119 8.74752E-04 7.27819E-16-4.02983E-03-3.88960E-08 9.54610E-10-5.85689E-04
 -1       120 8.75013E-04 7.27819E-16-4.02972E-03-3.88960E-08 9.54612E-10-5.85917E-04
 -1       121 5.62651E-04 4.70319E-16-2.36529E-03 2.66036E-08-1.41224E-08-5.08132E-04
 -1       122 5.62449E-04 4.70319E-16-2.36529E-03 2.66036E-08-1.41224E-08-5.08215E-04
 -1       123-5.61993E-05 4.17712E-17-9.51068E-04-4.54701E-08 1.26946E-09-5.68701E-04
 -1       124-5.50131E-05 4.17712E-17-9.51437E-04-4.54702E-08 1.26947E-09-5.68616E-04
 -1       125 8.76949E-04 4.02260E-15-3.55219E-04 2.18489E-08-7.55347E-08-7.60799E-04
 -1       126 8.75514E-04 4.02260E-15-3.56141E-04 2.18488E-08-7.55347E-08-7.59815E-04
 -3
    1PSTEP                        96          24           3          
  100CL  124 4.40000E-01         126                     1   24           1
 -4  ERROR       1    1
 -5  STR(%)      1    1    0    0
 -1         1 6.30556E+01
 -1         2 6.41700E+01
 -1         3 6.41700E+01
 -1         4 6.32114E+01
 -1         5 6.30556E+01
 -1         6 6.41700E+01
 -1         7 6.41700E+01
 -1         8 6.32114E+01
 -1         9 6.47575E+01
 -1        10 6.47575E+01
 -1        11 6.47575E+01
 -1        12 6.47575E+01
 -1        13 6.49807E+01
 -1        14 6.49807E+01
 -1        15 6.49807E+01
 -1        16 6.49807E+01
 -1        17 6.49807E+01
 -1        18 6.49807E+01
 -1        19 6.49807E+01
 -1        20 6.49807E+01
 -1        21 6.32626E+01
 -1        22 6.32626E+01
 -1        23 6.32626E+01
 -1        24 6.32626E+01
 -1        25 5.24687E+01
 -1        26 5.24687E+01
 -1        27 5.24687E+01
 -1        28 5.24687E+01
 -1        29 4.95975E+01
 -1        30 3.92293E+01
 -1        31 4.95975E+01
 -1        32 3.92293E+01
 -1        33 6.61565E+01
 -1        34 5.49580E+01
 -1        35 6.61565E+01
 -1        36 5.49580E+01
 -1        37 6.61565E+01
 -1        38 5.82953E+01
 -1        39 6.61565E+01
 -1        40 5.82953E+01
 -1        41 6.48181E+01
 -1        42 5.82953E+01
 -1        43 6.48181E+01
 -1        44 5.82953E+01
 -1        45 6.12409E+01
 -1        46 5.90863E+01
 -1        47 6.12409E+01
 -1        48 5.90863E+01
 -1        49 6.04777E+01
 -1        50 6.04777E+01
 -1        51 6.04777E+01
 -1        52 6.04777E+01
 -1        53 6.16018E+01
 -1        54 6.16018E+01
 -1        55 6.16018E+01
 -1        56 6.16018E+01
 -1        57 6.27679E+01
 -1        58 6.27679E+01
 -1        59 6.27679E+01
 -1        60 6.27679E+01
 -1        61 6.36805E+01
 -1        62 6.36805E+01
 -1        63 6.36805E+01
 -1        64 6.36805E+01
 -1        65 6.36805E+01
 -1        66 6.36805E+01
 -1        67 6.36805E+01
 -1        68 6.36805E+01
 -1        69 6.33162E+01
 -1        70 6.33162E+01
 -1        71 6.33162E+01
 -1        72 6.33162E+01
 -1        73 6.06979E+01
 -1        74 6.06979E+01
 -1        75 6.06979E+01
 -1        76 6.06979E+01
 -1        77 8.19697E+01
 -1        78 8.19697E+01
 -1        79 8.19697E+01
 -1        80 8.19697E+01
 -1        81 8.19697E+01
 -1        82 8.19697E+01
 -1        83 8.19697E+01
 -1        84 8.19697E+01
 -1        85 6.41700E+01
 -1        86 6.41700E+01
 -1        87 6.41700E+01
 -1        88 6.41700E+01
 -1        89 6.05783E+01
 -1        90 6.05783E+01
 -1        91 5.96766E+01
 -1        92 5.96766E+01
 -1        93 5.70606E+01
 -1        94 5.70606E+01
 -1        95 5.23439E+01
 -1        96 5.23439E+01
 -1        97 4.00142E+01
 -1        98 4.00142E+01
 -1        99 4.95975E+01
 -1       100 4.95975E+01
 -1       101 6.61565E+01
 -1       102 6.61565E+01
 -1       103 6.61565E+01
 -1       104 6.61565E+01
 -1       105 6.48181E+01
 -1       106 6.48181E+01
 -1       107 6.12409E+01
 -1       108 6.12409E+01
 -1       109 6.04766E+01
 -1       110 6.04766E+01
 -1       111 6.00225E+01
 -1       112 6.00225E+01
 -1       113 5.92413E+01
 -1       114 5.92413E+01
 -1       115 5.94323E+01
 -1       116 5.94323E+01
 -1       117 5.94323E+01
 -1       118 5.94323E+01
 -1       119 5.87292E+01
 -1       120 5.87292E+01
 -1       121 5.67456E+01
 -1       122 5.67456E+01
 -1       123 4.11233E+01
 -1       124 4.11233E+01
 -1       125 3.61471E+01
 -1       126 3.61471E+01
 -3
    1PSTEP                        97          25           3          
  100CL  125 4.50000E-01         126                     1   25           1
 -4  DISP        4    1
 -5  D1          1    2    1    0
 -5  D2          1    2    2    0
 -5  D3          1    2    3    0
 -5  ALL         1    2    0    0    1ALL
 -1         1 0.00000E+00 0.00000E+00 0.00000E+00
 -1         2 0.00000E+00 0.00000E+00 0.00000E+00
 -1         3 1.35152E-03 0.00000E+00 3.60181E-06
 -1         4 1.79367E-03 0.00000E+00-2.09703E-03
 -1         5 0.00000E+00 0.00000E+00 0.00000E+00
 -1         6 0.00000E+00 0.00000E+00 0.00000E+00
 -1         7 1.35153E-03 0.00000E+00 3.61656E-06
 -1         8 1.79366E-03 0.00000E+00-2.09703E-03
 -1         9 4.91715E-03 0.00000E+00-6.12922E-05
 -1        10 5.03442E-03 0.00000E+00-3.91853E-03
 -1        11 4.91715E-03 0.00000E+00-6.12647E-05
 -1        12 5.03440E-03 0.00000E+00-3.91852E-03
 -1        13 9.87159E-03 0.00000E+00-2.41670E-04
 -1        14 9.81288E-03 0.00000E+00-5.37918E-03
 -1        15 9.87158E-03 0.00000E+00-2.41644E-04
 -1        16 9.81287E-03 0.00000E+00-5.37917E-03
 -1        17 1.58699E-02 0.00000E+00-5.35862E-04
 -1        18 1.56332E-02 0.00000E+00-6.56534E-03
 -1        19 1.58699E-02 0.00000E+00-5.35848E-04
 -1        20 1.56332E-02 0.00000E+00-6.56533E-03
 -1        21 2.25386E-02 0.00000E+00-9.18685E-04
 -1        22 2.21695E-02 0.00000E+00-7.50516E-03
 -1        23 2.25386E-02 0.00000E+00-9.18691E-04
 -1        24 2.21695E-02 0.00000E+00-7.50517E-03
 -1        25 2.95741E-02 0.00000E+00-1.36012E-03
 -1        26 2.91157E-02 0.00000E+00-8.21881E-03
 -1        27 2.95741E-02 0.00000E+00-1.36014E-03
 -1        28 2.91157E-02 0.00000E+00-8.21883E-03
 -1        29 3.67156E-02 0.00000E+00-1.82681E-03
 -1        30 3.62092E-02 0.00000E+00-8.71862E-03
 -1        31 3.67156E-02 0.00000E+00-1.82684E-03
 -1        32 3.62092E-02 0.00000E+00-8.71862E-03
 -1        33 4.37411E-02 0.00000E+00-2.28784E-03
 -1        34 4.32240E-02 0.00000E+00-9.01960E-03
 -1        35 4.37410E-02 0.00000E+00-2.28786E-03
 -1        36 4.32240E-02 0.00000E+00-9.01960E-03
 -1        37 5.04754E-02 0.00000E+00-2.72002E-03
 -1        38 4.99775E-02 0.00000E+00-9.14748E-03
 -1        39 5.04754E-02 0.00000E+00-2.72004E-03
 -1        40 4.99775E-02 0.00000E+00-9.14749E-03
 -1        41 5.68004E-02 0.00000E+00-3.10869E-03
 -1        42 5.63407E-02 0.00000E+00-9.13766E-03
 -1        43 5.68004E-02 0.00000E+00-3.10871E-03
 -1        44 5.63407E-02 0.00000E+00-9.13768E-03
 -1        45 6.26506E-02 0.00000E+00-3.44719E-03
 -1        46 6.22402E-02 0.00000E+00-9.02896E-03
 -1        47 6.26506E-02 0.00000E+00-3.44718E-03
 -1        48 6.22401E-02 0.00000E+00-9.02896E-03
 -1        49 6.80047E-02 0.00000E+00-3.73590E-03
 -1        50 6.76481E-02 0.00000E+00-8.86041E-03
 -1        51 6.80047E-02 0.00000E+00-3.73588E-03
 -1        52 6.76481E-02 0.00000E+00-8.86038E-03
 -1        53 7.28783E-02 0.00000E+00-3.97882E-03
 -1        54 7.25735E-02 0.00000E+00-8.66979E-03
 -1        55 7.28783E-02 0.00000E+00-3.97881E-03
 -1        56 7.25736E-02 0.00000E+00-8.66977E-03
 -1        57 7.73213E-02 0.00000E+00-4.18220E-03
 -1        58 7.70632E-02 0.00000E+00-8.48530E-03
 -1        59 7.73213E-02 0.00000E+00-4.18218E-03
 -1        60 7.70632E-02 0.00000E+00-8.48529E-03
 -1        61 8.13957E-02 0.00000E+00-4.35332E-03
 -1        62 8.11779E-02 0.00000E+00-8.32191E-03
 -1        63 8.13957E-02 0.00000E+00-4.35330E-03
 -1        64 8.11780E-02 0.00000E+00-8.32190E-03
 -1        65 8.51568E-02 0.00000E+00-4.49771E-03
 -1        66 8.49720E-02 0.00000E+00-8.19060E-03
 -1        67 8.51568E-02 0.00000E+00-4.49771E-03
 -1        68 8.49720E-02 0.00000E+00-8.19062E-03
 -1        69 8.86683E-02 0.00000E+00-4.62050E-03
 -1        70 8.85130E-02 0.00000E+00-8.10316E-03
 -1        71 8.86683E-02 0.00000E+00-4.62051E-03
 -1        72 8.85130E-02 0.00000E+00-8.10314E-03
 -1        73 9.20062E-02 0.00000E+00-4.72844E-03
 -1        74 9.18714E-02 0.00000E+00-8.06839E-03
 -1        75 9.20062E-02 0.00000E+00-4.72844E-03
 -1        76 9.18714E-02 0.00000E+00-8.06842E-03
 -1        77 9.52403E-02 0.00000E+00-4.82667E-03
 -1        78 9.51365E-02 0.00000E+00-8.09393E-03
 -1        79 9.52403E-02 0.00000E+00-4.82669E-03
 -1        80 9.51365E-02 0.00000E+00-8.09392E-03
 -1        81 9.84672E-02 0.00000E+00-4.92799E-03
 -1        82 9.83206E-02 0.00000E+00-8.14668E-03
 -1        83 9.84672E-02 0.00000E+00-4.92802E-03
 -1        84 9.83206E-02 0.00000E+00-8.14670E-03
 -1        85 0.00000E+00 0.00000E+00 0.00000E+00
 -1        86 1.95874E-03 0.00000E+00 2.06751E-03
 -1        87 0.00000E+00 0.00000E+00 0.00000E+00
 -1        88 1.95876E-03 0.00000E+00 2.06753E-03
 -1        89 5.41387E-03 0.00000E+00 3.73441E-03
 -1        90 5.41387E-03 0.00000E+00 3.73443E-03
 -1        91 1.04101E-02 0.00000E+00 4.83298E-03
 -1        92 1.04101E-02 0.00000E+00 4.83300E-03
 -1        93 1.64241E-02 0.00000E+00 5.44503E-03
 -1        94 1.64241E-02 0.00000E+00 5.44503E-03
 -1        95 2.30943E-02 0.00000E+00 5.63500E-03
 -1        96 2.30943E-02 0.00000E+00 5.63499E-03
 -1        97 3.01065E-02 0.00000E+00 5.48255E-03
 -1        98 3.01065E-02 0.00000E+00 5.48253E-03
 -1        99 3.72024E-02 0.00000E+00 5.06341E-03
 -1       100 3.72024E-02 0.00000E+00 5.06337E-03
 -1       101 4.41651E-02 0.00000E+00 4.45248E-03
 -1       102 4.41650E-02 0.00000E+00 4.45244E-03
 -1       103 5.08288E-02 0.00000E+00 3.72266E-03
 -1       104 5.08288E-02 0.00000E+00 3.72265E-03
 -1       105 5.70847E-02 0.00000E+00 2.93871E-03
 -1       106 5.70848E-02 0.00000E+00 2.93870E-03
 -1       107 6.28730E-02 0.00000E+00 2.15297E-03
 -1       108 6.28730E-02 0.00000E+00 2.15297E-03
 -1       109 6.81766E-02 0.00000E+00 1.40582E-03
 -1       110 6.81766E-02 0.00000E+00 1.40583E-03
 -1       111 7.30141E-02 0.00000E+00 7.26875E-04
 -1       112 7.30141E-02 0.00000E+00 7.26889E-04
 -1       113 7.74319E-02 0.00000E+00 1.32026E-04
 -1       114 7.74320E-02 0.00000E+00 1.32039E-04
 -1       115 8.14904E-02 0.00000E+00-3.75570E-04
 -1       116 8.14904E-02 0.00000E+00-3.75573E-04
 -1       117 8.52446E-02 0.00000E+00-7.96632E-04
 -1       118 8.52446E-02 0.00000E+00-7.96619E-04
 -1       119 8.87568E-02 0.00000E+00-1.13066E-03
 -1       120 8.87568E-02 0.00000E+00-1.13067E-03
 -1       121 9.20965E-02 0.00000E+00-1.37987E-03
 -1       122 9.20965E-02 0.00000E+00-1.37986E-03
 -1       123 9.53525E-02 0.00000E+00-1.55601E-03
 -1       124 9.53525E-02 0.00000E+00-1.55604E-03
 -1       125 9.85303E-02 0.00000E+00-1.67334E-03
 -1       126 9.85303E-02 0.00000E+00-1.67333E-03
 -3
    1PSTEP                        98          25           3          
  100CL  125 4.50000E-01         126                     1   25           1
 -4  STRESS      6    1
 -5  SXX         1    4    1    1
 -5  SYY         1    4    2    2
 -5  SZZ         1    4    3    3
 -5  SXY         1    4    1    2
 -5  SYZ         1    4    2    3
 -5  SZX         1    4    3    1
 -1         1-9.41254E+03-9.73318E+03-2.11980E+04 5.09713E-05-5.83269E-05 4.80177E+03
 -1         2 2.58184E+02 1.00975E+02-1.23443E+02 5.28317E-05 1.16651E-06 4.14999E+03
 -1         3 7.52481E+01 1.00906E+00-1.41116E+02 4.11985E-04 7.50886E-03 1.14769E+03
 -1         4-3.31695E+03-6.48217E+03-1.72442E+04-7.46231E-03 2.56280E-03 8.94294E+02
 -1         5-9.41252E+03-9.73316E+03-2.11979E+04 5.09704E-05-5.83270E-05 4.80173E+03
 -1         6 2.58251E+02 1.01043E+02-1.23287E+02 5.28319E-05 1.16669E-06 4.14999E+03
 -1         7 7.51466E+01 1.00282E+00-1.41037E+02 4.11984E-04 7.50887E-03 1.14767E+03
 -1         8-3.31710E+03-6.48222E+03-1.72443E+04-7.46230E-03 2.56280E-03 8.94237E+02
 -1         9 1.22617E+02 9.20785E+01 8.90611E+01 4.83295E-06 1.40757E-02 1.33010E+03
 -1        10-3.83623E+03-5.59172E+03-1.41046E+04-1.17500E-02 4.92804E-03 4.16950E+01
 -1        11 1.22542E+02 9.20631E+01 8.90802E+01 4.83079E-06 1.40757E-02 1.33007E+03
 -1        12-3.83646E+03-5.59182E+03-1.41047E+04-1.17500E-02 4.92804E-03 4.16472E+01
 -1        13 1.94167E+02 1.30864E+02 2.04209E+02-3.36579E-03 1.28948E-02 1.14211E+03
 -1        14-2.44924E+03-3.83763E+03-1.00004E+04-8.96065E-03 4.47103E-03 8.74844E+01
 -1        15 1.94120E+02 1.30828E+02 2.04137E+02-3.36578E-03 1.28948E-02 1.14211E+03
 -1        16-2.44935E+03-3.83768E+03-1.00004E+04-8.96064E-03 4.47103E-03 8.74844E+01
 -1        17 2.12850E+02 1.44865E+02 2.55926E+02 4.44733E-03 7.45537E-03 1.01913E+03
 -1        18-1.62133E+03-2.52751E+03-6.65242E+03 3.89913E-03 1.66329E-03 1.41351E+02
 -1        19 2.12879E+02 1.44836E+02 2.55800E+02 4.44734E-03 7.45537E-03 1.01918E+03
 -1        20-1.62135E+03-2.52755E+03-6.65253E+03 3.89913E-03 1.66329E-03 1.41399E+02
 -1        21 2.08480E+02 1.41720E+02 2.63428E+02 1.64248E-02-3.24207E-03 8.79666E+02
 -1        22-8.52289E+02-1.38944E+03-3.72884E+03 2.08220E-02-8.19537E-03 2.81113E+02
 -1        23 2.08564E+02 1.41709E+02 2.63306E+02 1.64248E-02-3.24207E-03 8.79656E+02
 -1        24-8.52224E+02-1.38943E+03-3.72888E+03 2.08220E-02-8.19537E-03 2.81096E+02
 -1        25 1.86413E+02 1.23936E+02 2.31071E+02 1.05587E-02-1.17646E-02 7.42999E+02
 -1        26-2.18956E+02-4.44987E+02-1.25329E+03 1.09498E-02-7.61054E-03 4.26360E+02
 -1        27 1.86443E+02 1.23924E+02 2.31001E+02 1.05587E-02-1.17646E-02 7.42942E+02
 -1        28-2.18972E+02-4.44982E+02-1.25326E+03 1.09498E-02-7.61054E-03 4.26300E+02
 -1        29 1.45679E+02 9.61019E+01 1.78566E+02-3.87293E-03-1.24642E-02 6.01101E+02
 -1        30 2.86092E+02 3.22357E+02 7.97282E+02-8.69980E-03-2.71993E-03 5.41716E+02
 -1        31 1.45634E+02 9.60861E+01 1.78558E+02-3.87292E-03-1.24642E-02 6.01073E+02
 -1        32 2.85956E+02 3.22305E+02 7.97244E+02-8.69980E-03-2.71993E-03 5.41691E+02
 -1        33 1.00992E+02 6.61503E+01 1.20261E+02-1.60105E-02-8.14650E-03 4.48318E+02
 -1        34 6.68711E+02 9.14281E+02 2.40409E+03-1.90532E-02-2.78181E-03 5.95979E+02
 -1        35 1.00995E+02 6.61607E+01 1.20293E+02-1.60105E-02-8.14651E-03 4.48360E+02
 -1        36 6.68618E+02 9.14222E+02 2.40399E+03-1.90532E-02-2.78181E-03 5.96018E+02
 -1        37 5.97143E+01 3.80398E+01 6.40116E+01-5.94688E-03-6.76523E-03 2.93244E+02
 -1        38 9.30030E+02 1.32697E+03 3.53868E+03-6.55185E-03-8.64645E-03 5.81384E+02
 -1        39 5.97923E+01 3.80755E+01 6.40537E+01-5.94688E-03-6.76523E-03 2.93324E+02
 -1        40 9.30029E+02 1.32695E+03 3.53863E+03-6.55186E-03-8.64645E-03 5.81456E+02
 -1        41 2.06191E+01 1.29102E+01 1.62950E+01 1.32101E-02-7.38467E-03 1.51872E+02
 -1        42 1.07038E+03 1.56648E+03 4.21155E+03 8.66578E-03-9.16980E-03 5.13672E+02
 -1        43 2.06371E+01 1.29409E+01 1.63818E+01 1.32101E-02-7.38467E-03 1.51868E+02
 -1        44 1.07031E+03 1.56647E+03 4.21160E+03 8.66578E-03-9.16981E-03 5.13648E+02
 -1        45-6.37197E+00-5.08306E+00-1.82344E+01-4.09876E-03 1.94331E-03 3.28615E+01
 -1        46 1.11563E+03 1.65808E+03 4.47736E+03-1.30981E-02-6.19145E-04 4.15602E+02
 -1        47-6.39621E+00-5.04787E+00-1.80937E+01-4.09876E-03 1.94331E-03 3.28119E+01
 -1        48 1.11554E+03 1.65811E+03 4.47753E+03-1.30981E-02-6.19141E-04 4.15552E+02
 -1        49-1.93695E+01-1.47409E+01-3.74588E+01-4.69842E-03 1.02555E-02-6.16194E+01
 -1        50 1.08688E+03 1.62546E+03 4.39390E+03-6.96100E-03 1.53237E-02 3.03289E+02
 -1        51-1.92648E+01-1.46896E+01-3.73925E+01-4.69842E-03 1.02555E-02-6.15646E+01
 -1        52 1.08688E+03 1.62548E+03 4.39396E+03-6.96099E-03 1.53237E-02 3.03395E+02
 -1        53-3.04835E+01-1.98711E+01-4.25886E+01 5.59904E-03 5.44460E-03-1.25136E+02
 -1        54 9.94157E+02 1.49583E+03 4.04442E+03 1.06413E-02 7.26339E-03 1.95916E+02
 -1        55-3.03735E+01-1.98329E+01-4.25711E+01 5.59905E-03 5.44460E-03-1.25074E+02
 -1        56 9.94223E+02 1.49582E+03 4.04433E+03 1.06413E-02 7.26339E-03 1.95973E+02
 -1        57-2.81731E+01-1.67245E+01-3.30063E+01 1.75465E-02 6.73705E-03-1.55113E+02
 -1        58 8.76960E+02 1.31900E+03 3.56017E+03 1.06212E-02 2.63864E-03 1.13000E+02
 -1        59-2.80766E+01-1.66592E+01-3.28836E+01 1.75465E-02 6.73706E-03-1.55100E+02
 -1        60 8.76832E+02 1.31895E+03 3.56014E+03 1.06212E-02 2.63864E-03 1.12986E+02
 -1        61-2.05119E+01-8.84894E+00-1.27102E+01 1.36201E-02 1.46831E-02-1.71091E+02
 -1        62 7.50204E+02 1.12264E+03 3.02127E+03 1.28414E-02 9.76232E-03 4.60200E+01
 -1        63-2.05355E+01-8.87518E+00-1.27733E+01 1.36201E-02 1.46831E-02-1.71123E+02
 -1        64 7.50140E+02 1.12259E+03 3.02117E+03 1.28414E-02 9.76230E-03 4.59454E+01
 -1        65-2.37859E+01-2.24013E+00 1.41093E+01-4.07487E-03 1.45565E-03-1.86005E+02
 -1        66 5.95478E+02 9.01439E+02 2.42850E+03-3.37332E-03-6.50396E-03-1.11778E+01
 -1        67-2.36675E+01-2.23197E+00 1.40185E+01-4.07488E-03 1.45565E-03-1.86092E+02
 -1        68 5.95498E+02 9.01454E+02 2.42853E+03-3.37332E-03-6.50395E-03-1.12487E+01
 -1        69-1.74941E+01 8.78858E+00 4.56730E+01 8.15867E-05-2.77747E-03-1.87922E+02
 -1        70 4.52809E+02 6.73954E+02 1.80458E+03 5.53851E-03 1.11013E-02-5.53409E+01
 -1        71-1.73089E+01 8.86188E+00 4.57320E+01 8.15865E-05-2.77747E-03-1.87861E+02
 -1        72 4.52876E+02 6.73958E+02 1.80452E+03 5.53851E-03 1.11013E-02-5.52789E+01
 -1        73-6.27864E+00 2.05022E+01 7.43709E+01 2.59966E-03 1.24738E-04-1.77066E+02
 -1        74 2.67261E+02 4.20439E+02 1.13872E+03-9.41997E-03-1.42337E-02-5.82284E+01
 -1        75-6.27239E+00 2.04879E+01 7.43179E+01 2.59966E-03 1.24738E-04-1.77142E+02
 -1        76 2.66983E+02 4.20304E+02 1.13854E+03-9.41997E-03-1.42337E-02-5.82986E+01
 -1        77-4.82843E+00 1.69011E+01 6.09170E+01-8.19343E-03-1.03921E-02-1.16427E+02
 -1        78 3.14854E+02 3.13001E+02 7.30462E+02 9.89716E-03 2.73198E-03-1.18341E+02
 -1        79-4.82088E+00 1.68600E+01 6.07718E+01-8.19344E-03-1.03921E-02-1.16340E+02
 -1        80 3.15242E+02 3.13173E+02 7.30650E+02 9.89716E-03 2.73198E-03-1.18278E+02
 -1        81 1.02553E+01 1.34848E+01 3.52110E+01 1.49618E-02-1.60346E-02-2.96440E+01
 -1        82-2.48866E+02 2.73670E+01 3.40943E+02-1.27939E-02-9.97272E-03-8.76026E+01
 -1        83 1.02019E+01 1.34350E+01 3.51000E+01 1.49618E-02-1.60346E-02-2.95537E+01
 -1        84-2.49594E+02 2.69872E+01 3.40406E+02-1.27939E-02-9.97270E-03-8.76960E+01
 -1        85 9.93610E+03 9.52088E+03 2.37254E+04 1.04451E-04 5.94923E-05 6.83900E+03
 -1        86 3.18919E+03 6.38062E+03 1.92083E+04 8.48215E-03 1.07764E-02 2.46440E+03
 -1        87 9.93619E+03 9.52097E+03 2.37256E+04 1.04452E-04 5.94925E-05 6.83906E+03
 -1        88 3.18908E+03 6.38060E+03 1.92084E+04 8.48215E-03 1.07764E-02 2.46438E+03
 -1        89 3.69646E+03 5.57126E+03 1.56706E+04-2.65134E-03 1.14788E-02 1.87215E+03
 -1        90 3.69649E+03 5.57127E+03 1.56706E+04-2.65134E-03 1.14788E-02 1.87212E+03
 -1        91 2.64544E+03 4.03798E+03 1.12510E+04-6.53558E-03 9.12001E-03 1.83607E+03
 -1        92 2.64546E+03 4.03796E+03 1.12509E+04-6.53558E-03 9.12001E-03 1.83608E+03
 -1        93 1.89593E+03 2.79252E+03 7.62883E+03-3.28825E-03 7.44791E-04 1.50369E+03
 -1        94 1.89604E+03 2.79253E+03 7.62876E+03-3.28826E-03 7.44789E-04 1.50376E+03
 -1        95 1.15535E+03 1.66716E+03 4.48783E+03 5.52301E-03-3.33916E-03 1.13185E+03
 -1        96 1.15553E+03 1.66721E+03 4.48780E+03 5.52301E-03-3.33916E-03 1.13185E+03
 -1        97 5.02067E+02 6.95569E+02 1.83973E+03 9.59325E-04-1.15564E-02 7.55645E+02
 -1        98 5.02174E+02 6.95574E+02 1.83963E+03 9.59330E-04-1.15564E-02 7.55588E+02
 -1        99-6.84338E+01-1.29463E+02-3.56782E+02-7.60663E-03-1.94419E-02 4.12344E+02
 -1       100-6.84222E+01-1.29479E+02-3.56850E+02-7.60663E-03-1.94419E-02 4.12323E+02
 -1       101-5.24138E+02-7.84708E+02-2.07498E+03-1.81413E-02-1.78534E-02 1.19456E+02
 -1       102-5.24050E+02-7.84643E+02-2.07485E+03-1.81413E-02-1.78535E-02 1.19511E+02
 -1       103-8.50689E+02-1.25548E+03-3.29713E+03-9.75446E-03-5.99277E-03-1.06274E+02
 -1       104-8.50507E+02-1.25536E+03-3.29694E+03-9.75447E-03-5.99278E-03-1.06189E+02
 -1       105-1.05679E+03-1.54880E+03-4.05029E+03 1.14588E-02-4.18346E-03-2.59372E+02
 -1       106-1.05671E+03-1.54874E+03-4.05019E+03 1.14589E-02-4.18346E-03-2.59376E+02
 -1       107-1.14412E+03-1.67693E+03-4.38035E+03-5.22102E-03 9.75858E-04-3.47156E+02
 -1       108-1.14409E+03-1.67689E+03-4.38026E+03-5.22102E-03 9.75861E-04-3.47225E+02
 -1       109-1.13072E+03-1.66217E+03-4.34523E+03-1.49412E-02 5.90724E-03-3.82425E+02
 -1       110-1.13048E+03-1.66205E+03-4.34508E+03-1.49412E-02 5.90724E-03-3.82387E+02
 -1       111-1.05676E+03-1.54450E+03-4.03576E+03 6.33715E-04 6.91123E-03-3.77931E+02
 -1       112-1.05663E+03-1.54445E+03-4.03570E+03 6.33718E-04 6.91123E-03-3.77881E+02
 -1       113-9.30174E+02-1.35860E+03-3.55523E+03 6.33837E-03 6.43943E-03-3.45126E+02
 -1       114-9.29967E+02-1.35854E+03-3.55521E+03 6.33838E-03 6.43943E-03-3.45103E+02
 -1       115-7.80521E+02-1.13974E+03-2.98786E+03 1.08179E-02-1.42862E-03-3.05701E+02
 -1       116-7.80497E+02-1.13974E+03-2.98787E+03 1.08179E-02-1.42862E-03-3.05693E+02
 -1       117-6.28232E+02-9.02238E+02-2.35979E+03-2.27947E-02 6.22596E-03-2.71509E+02
 -1       118-6.27866E+02-9.02085E+02-2.35965E+03-2.27947E-02 6.22597E-03-2.71615E+02
 -1       119-4.68854E+02-6.47822E+02-1.68036E+03-1.26796E-02-3.88383E-03-2.38153E+02
 -1       120-4.68596E+02-6.47721E+02-1.68028E+03-1.26796E-02-3.88384E-03-2.38125E+02
 -1       121-2.62858E+02-3.77065E+02-9.90311E+02-1.33024E-02 2.41106E-03-1.80114E+02
 -1       122-2.62564E+02-3.76968E+02-9.90280E+02-1.33024E-02 2.41106E-03-1.80091E+02
 -1       123-2.74820E+02-2.22295E+02-4.64856E+02 2.52469E-03-1.53423E-02-1.71639E+02
 -1       124-2.75031E+02-2.22378E+02-4.64923E+02 2.52469E-03-1.53423E-02-1.71592E+02
 -1       125 3.56588E+02 1.22802E+02 5.38122E+01-9.05329E-03 5.65531E-03-2.47235E+02
 -1       126 3.57278E+02 1.23212E+02 5.44911E+01-9.05330E-03 5.65531E-03-2.47436E+02
 -3
    1PSTEP                        99          25           3          
  100CL  125 4.50000E-01         126                     1   25           1
 -4  TOSTRAIN    6    1
 -5  EXX         1    4    1    1
 -5  EYY         1    4    2    2
 -5  EZZ         1    4    3    3
 -5  EXY         1    4    1    2
 -5  EYZ         1    4    2    3
 -5  EZX         1    4    3    1
 -1         1-1.53764E-04-1.78076E-16-4.05703E-02 1.03878E-10-3.06667E-13 1.79365E-02
 -1         2-1.53925E-04-1.57733E-16 2.83394E-04 1.70917E-10-3.80814E-13 1.35150E-02
 -1         3-8.55614E-04 8.17555E-16 7.12834E-04 2.16099E-10 2.45417E-08 3.73502E-03
 -1         4 9.63438E-03 9.45548E-16-3.71710E-02-2.46839E-08 8.04629E-09 5.21131E-03
 -1         5-1.53765E-04-1.78076E-16-4.05702E-02 1.03877E-10-3.06667E-13 1.79363E-02
 -1         6-1.53926E-04-1.57733E-16 2.83688E-04 1.70918E-10-3.80814E-13 1.35150E-02
 -1         7-8.55916E-04 8.17555E-16 7.13109E-04 2.16096E-10 2.45417E-08 3.73494E-03
 -1         8 9.63408E-03 9.45548E-16-3.71709E-02-2.46839E-08 8.04630E-09 5.21110E-03
 -1         9-9.19061E-04 3.73909E-15 1.19767E-03-3.83835E-09 4.56550E-08 4.26763E-03
 -1        10 5.24266E-03 2.75120E-15-2.90231E-02-3.95059E-08 1.39104E-08 2.88350E-03
 -1        11-9.19228E-04 3.73909E-15 1.19777E-03-3.83836E-09 4.56550E-08 4.26753E-03
 -1        12 5.24224E-03 2.75120E-15-2.90231E-02-3.95059E-08 1.39104E-08 2.88330E-03
 -1        13-7.69262E-04 3.38632E-15 1.27743E-03-1.54542E-08 4.05272E-08 3.61788E-03
 -1        14 4.06360E-03 1.52808E-15-2.04842E-02-3.06168E-08 1.19050E-08 2.91637E-03
 -1        15-7.69300E-04 3.38632E-15 1.27731E-03-1.54542E-08 4.05272E-08 3.61789E-03
 -1        16 4.06342E-03 1.52808E-15-2.04842E-02-3.06168E-08 1.19050E-08 2.91636E-03
 -1        17-6.78977E-04 7.22246E-16 1.27902E-03 1.12680E-08 2.56582E-08 3.18867E-03
 -1        18 2.53016E-03-7.05929E-16-1.33898E-02 1.19124E-08 6.97336E-09 2.47751E-03
 -1        19-6.78841E-04 7.22246E-16 1.27875E-03 1.12680E-08 2.56582E-08 3.18890E-03
 -1        20 2.53017E-03-7.05929E-16-1.33900E-02 1.19124E-08 6.97336E-09 2.47770E-03
 -1        21-5.77297E-04 5.04034E-15 1.18168E-03 5.43182E-08-3.44473E-09 2.72808E-03
 -1        22 1.31446E-03 9.67417E-15-7.30489E-03 7.07641E-08-1.76968E-08 2.13894E-03
 -1        23-5.76989E-04 5.04034E-15 1.18132E-03 5.43182E-08-3.44471E-09 2.72814E-03
 -1        24 1.31465E-03 9.67417E-15-7.30506E-03 7.07641E-08-1.76968E-08 2.13893E-03
 -1        25-4.73401E-04 4.61312E-15 1.00842E-03 3.93874E-08-3.31241E-08 2.29787E-03
 -1        26 2.81253E-04 2.88232E-15-2.20325E-03 3.87489E-08-1.96750E-08 1.80048E-03
 -1        27-4.73219E-04 4.61312E-15 1.00819E-03 3.93874E-08-3.31241E-08 2.29774E-03
 -1        28 2.81245E-04 2.88232E-15-2.20322E-03 3.87489E-08-1.96750E-08 1.80026E-03
 -1        29-3.85462E-04 2.62163E-15 8.01124E-04-6.72881E-09-4.18148E-08 1.86039E-03
 -1        30-5.76818E-04 4.36120E-16 1.97813E-03-2.67405E-08-1.26173E-08 1.46084E-03
 -1        31-3.85529E-04 2.62163E-15 8.01123E-04-6.72883E-09-4.18148E-08 1.86029E-03
 -1        32-5.77058E-04 4.36120E-16 1.97814E-03-2.67405E-08-1.26173E-08 1.46072E-03
 -1        33-2.93118E-04 6.07796E-15 5.76755E-04-4.79065E-08-3.31892E-08 1.39314E-03
 -1        34-1.22625E-03 7.16960E-15 5.20168E-03-6.00591E-08-1.71524E-08 1.10053E-03
 -1        35-2.93176E-04 6.07796E-15 5.76858E-04-4.79065E-08-3.31892E-08 1.39326E-03
 -1        36-1.22640E-03 7.16960E-15 5.20158E-03-6.00591E-08-1.71524E-08 1.10065E-03
 -1        37-1.98195E-04 8.70479E-16 3.56718E-04-1.62889E-08-2.42294E-08 9.18291E-04
 -1        38-1.65115E-03 1.67869E-15 7.42662E-03-1.74350E-08-3.02561E-08 7.31809E-04
 -1        39-1.98126E-04 8.70479E-16 3.56805E-04-1.62889E-08-2.42295E-08 9.18553E-04
 -1        40-1.65117E-03 1.67869E-15 7.42657E-03-1.74350E-08-3.02561E-08 7.32049E-04
 -1        41-1.24965E-04 3.47043E-15 1.71898E-04 4.55361E-08-1.86561E-08 4.80238E-04
 -1        42-1.88733E-03 1.88000E-15 8.70945E-03 3.15162E-08-2.59077E-08 3.88413E-04
 -1        43-1.25007E-04 3.47043E-15 1.72074E-04 4.55361E-08-1.86561E-08 4.80196E-04
 -1        44-1.88750E-03 1.88000E-15 8.70960E-03 3.15162E-08-2.59077E-08 3.88298E-04
 -1        45-6.22390E-05-4.96219E-16 2.99367E-05-1.39557E-08 4.72927E-09 1.08097E-04
 -1        46-1.95166E-03 1.89640E-15 9.17438E-03-4.20230E-08-6.74531E-09 1.00036E-04
 -1        47-6.23879E-05-4.96219E-16 3.02384E-05-1.39557E-08 4.72927E-09 1.07881E-04
 -1        48-1.95199E-03 1.89640E-15 9.17481E-03-4.20230E-08-6.74529E-09 9.97891E-05
 -1        49-6.79753E-06 2.12623E-15-6.70789E-05-1.85910E-08 3.16473E-08-1.90236E-04
 -1        50-1.86208E-03 4.61021E-15 8.94189E-03-2.75618E-08 4.67264E-08-1.30747E-04
 -1        51-6.66133E-06 2.12623E-15-6.69920E-05-1.85910E-08 3.16473E-08-1.90050E-04
 -1        52-1.86219E-03 4.61021E-15 8.94208E-03-2.75617E-08 4.67264E-08-1.30437E-04
 -1        53 1.47628E-05 7.67583E-16-1.09463E-04 1.64806E-08 1.93833E-08-3.95966E-04
 -1        54-1.68132E-03 2.74117E-15 8.19396E-03 3.21881E-08 2.65093E-08-2.96814E-04
 -1        55 1.49565E-05 7.67583E-16-1.09491E-04 1.64806E-08 1.93834E-08-3.95737E-04
 -1        56-1.68113E-03 2.74117E-15 8.19375E-03 3.21881E-08 2.65093E-08-2.96590E-04
 -1        57 2.91240E-05 6.83548E-15-1.08298E-04 5.49575E-08 2.67379E-08-4.95388E-04
 -1        58-1.44934E-03 2.22001E-15 7.18904E-03 3.35966E-08 1.13812E-08-3.80666E-04
 -1        59 2.92139E-05 6.83548E-15-1.08104E-04 5.49575E-08 2.67379E-08-4.95353E-04
 -1        60-1.44959E-03 2.22001E-15 7.18909E-03 3.35966E-08 1.13812E-08-3.80740E-04
 -1        61 3.54779E-05 7.13202E-15-7.86443E-05 4.03884E-08 5.10860E-08-5.51071E-04
 -1        62-1.19822E-03 4.33395E-15 6.08061E-03 3.90583E-08 3.46059E-08-4.30908E-04
 -1        63 3.55001E-05 7.13202E-15-7.87801E-05 4.03884E-08 5.10860E-08-5.51169E-04
 -1        64-1.19824E-03 4.33395E-15 6.08042E-03 3.90582E-08 3.46059E-08-4.31138E-04
 -1        65 9.72498E-06-1.11038E-15-2.25404E-05-1.35392E-08 3.69684E-09-6.06913E-04
 -1        66-9.63481E-04-5.47496E-16 4.88128E-03-9.38132E-09-2.17867E-08-4.69772E-04
 -1        67 1.01210E-05-1.11038E-15-2.29003E-05-1.35392E-08 3.69684E-09-6.07142E-04
 -1        68-9.63431E-04-5.47496E-16 4.88129E-03-9.38132E-09-2.17867E-08-4.69996E-04
 -1        69-5.11415E-06-3.56233E-16 4.14768E-05 8.91770E-10-8.95555E-09-6.18900E-04
 -1        70-6.76365E-04 7.18756E-16 3.60359E-03 1.54708E-08 3.70982E-08-4.79510E-04
 -1        71-4.77973E-06-3.56233E-16 4.14602E-05 8.91769E-10-8.95555E-09-6.18677E-04
 -1        72-6.76190E-04 7.18756E-16 3.60343E-03 1.54708E-08 3.70982E-08-4.79287E-04
 -1        73-1.19286E-05-8.32431E-16 1.00090E-04 8.40375E-09 9.52701E-10-5.87524E-04
 -1        74-4.61207E-04 3.02827E-15 2.28597E-03-2.74852E-08-4.80778E-08-3.74295E-04
 -1        75-1.18315E-05-8.32431E-16 9.99309E-05 8.40375E-09 9.52703E-10-5.87758E-04
 -1        76-4.61638E-04 3.02827E-15 2.28581E-03-2.74852E-08-4.80778E-08-3.74542E-04
 -1        77-2.06237E-05 2.12873E-15 9.35476E-05-2.43895E-08-3.54299E-08-3.89063E-04
 -1        78 6.07179E-05-7.66142E-16 1.29722E-03 3.15198E-08 1.09589E-08-4.67692E-04
 -1        79-2.05030E-05 2.12873E-15 9.32487E-05-2.43896E-08-3.54299E-08-3.88751E-04
 -1        80 6.13888E-05-7.66142E-16 1.29730E-03 3.15198E-08 1.09589E-08-4.67449E-04
 -1        81 9.32846E-07 6.08023E-15 5.80084E-05 5.18779E-08-4.88445E-08-1.00435E-04
 -1        82-8.54766E-04 1.59894E-15 9.73091E-04-3.94581E-08-3.49909E-08-4.05217E-04
 -1        83 8.79754E-07 6.08023E-15 5.78473E-05 5.18779E-08-4.88445E-08-1.00132E-04
 -1        84-8.55861E-04 1.59894E-15 9.72540E-04-3.94581E-08-3.49909E-08-4.05559E-04
 -1        85-1.54085E-04-5.43655E-16 4.28172E-02 2.74063E-10-4.78051E-13 1.95871E-02
 -1        86-1.13456E-02 2.81299E-15 3.94986E-02 2.56489E-08 3.44683E-08 5.33058E-03
 -1        87-1.54086E-04-5.43655E-16 4.28176E-02 2.74065E-10-4.78050E-13 1.95872E-02
 -1        88-1.13459E-02 2.81299E-15 3.94988E-02 2.56489E-08 3.44683E-08 5.33049E-03
 -1        89-7.08079E-03 2.31681E-15 3.16650E-02-1.15997E-08 3.50993E-08 2.83002E-03
 -1        90-7.08069E-03 2.31681E-15 3.16650E-02-1.15997E-08 3.50993E-08 2.82995E-03
 -1        91-5.60213E-03 2.26763E-15 2.33359E-02-2.42217E-08 2.64142E-08 2.84351E-03
 -1        92-5.60202E-03 2.26763E-15 2.33357E-02-2.42217E-08 2.64142E-08 2.84361E-03
 -1        93-3.88812E-03-4.01690E-16 1.61077E-02-1.08918E-08 9.58978E-10 2.42935E-03
 -1        94-3.88785E-03-4.01690E-16 1.61075E-02-1.08918E-08 9.58975E-10 2.42964E-03
 -1        95-2.46905E-03 1.62394E-16 9.74027E-03 1.92089E-08-8.32339E-09 2.08999E-03
 -1        96-2.46863E-03 1.62394E-16 9.74004E-03 1.92089E-08-8.32338E-09 2.09008E-03
 -1        97-1.22806E-03 2.10261E-15 4.25466E-03 8.34750E-09-3.65657E-08 1.75363E-03
 -1        98-1.22768E-03 2.10261E-15 4.25432E-03 8.34750E-09-3.65657E-08 1.75354E-03
 -1        99-1.94107E-04 8.56647E-15-3.63260E-04-1.55988E-08-6.60349E-08 1.41602E-03
 -1       100-1.94001E-04 8.56647E-15-3.63439E-04-1.55988E-08-6.60349E-08 1.41599E-03
 -1       101 6.40016E-04 1.28818E-14-4.03033E-03-5.05147E-08-6.57750E-08 1.05492E-03
 -1       102 6.40046E-04 1.28818E-14-4.03008E-03-5.05147E-08-6.57750E-08 1.05508E-03
 -1       103 1.25476E-03 1.59986E-15-6.67287E-03-2.89272E-08-2.35602E-08 6.90146E-04
 -1       104 1.25492E-03 1.59986E-15-6.67253E-03-2.89272E-08-2.35602E-08 6.90412E-04
 -1       105 1.63740E-03 1.78473E-15-8.31555E-03 3.86864E-08-9.12472E-09 3.53856E-04
 -1       106 1.63748E-03 1.78473E-15-8.31540E-03 3.86864E-08-9.12472E-09 3.53835E-04
 -1       107 1.82718E-03-1.28773E-16-9.05485E-03-1.72446E-08 1.21036E-09 6.96643E-05
 -1       108 1.82722E-03-1.28773E-16-9.05471E-03-1.72446E-08 1.21037E-09 6.94178E-05
 -1       109 1.84848E-03 4.43848E-15-9.01265E-03-5.03290E-08 1.43458E-08-1.53048E-04
 -1       110 1.84886E-03 4.43848E-15-9.01253E-03-5.03290E-08 1.43458E-08-1.52895E-04
 -1       111 1.71084E-03 5.12201E-16-8.37013E-03-3.57549E-11 2.28679E-08-3.06676E-04
 -1       112 1.71104E-03 5.12201E-16-8.37008E-03-3.57553E-11 2.28679E-08-3.06492E-04
 -1       113 1.50759E-03 1.22845E-15-7.36876E-03 1.87835E-08 2.28923E-08-3.78969E-04
 -1       114 1.50802E-03 1.22845E-15-7.36890E-03 1.87835E-08 2.28923E-08-3.78841E-04
 -1       115 1.26918E-03-3.66717E-16-6.18957E-03 3.54588E-08-1.81074E-09-4.18609E-04
 -1       116 1.26924E-03-3.66717E-16-6.18962E-03 3.54588E-08-1.81076E-09-4.18577E-04
 -1       117 9.82931E-04 8.24383E-15-4.88089E-03-7.54054E-08 1.47494E-08-4.62814E-04
 -1       118 9.83673E-04 8.24383E-15-4.88097E-03-7.54055E-08 1.47494E-08-4.63108E-04
 -1       119 6.66136E-04 2.74238E-15-3.46710E-03-4.02620E-08-1.55245E-08-4.96338E-04
 -1       120 6.66630E-04 2.74238E-15-3.46716E-03-4.02620E-08-1.55245E-08-4.96203E-04
 -1       121 4.37350E-04 2.11326E-15-2.06906E-03-4.36665E-08 4.94356E-09-4.24393E-04
 -1       122 4.37975E-04 2.11326E-15-2.06926E-03-4.36665E-08 4.94355E-09-4.24262E-04
 -1       123-1.01965E-04 3.40741E-15-8.60404E-04 1.13945E-08-4.92722E-08-5.13725E-04
 -1       124-1.02395E-04 3.40741E-15-8.60335E-04 1.13945E-08-4.92722E-08-5.13602E-04
 -1       125 8.56632E-04-2.18224E-15-3.24386E-04-3.05158E-08 1.64245E-08-7.32530E-04
 -1       126 8.57621E-04-2.18224E-15-3.23598E-04-3.05158E-08 1.64245E-08-7.33173E-04
 -3
    1PSTEP                       100          25           3          
  100CL  125 4.50000E-01         126                     1   25           1
 -4  ERROR       1    1
 -5  STR(%)      1    1    0    0
 -1         1 6.32353E+01
 -1         2 6.39776E+01
 -1         3 6.39776E+01
 -1         4 6.37090E+01
 -1         5 6.32353E+01
 -1         6 6.39776E+01
 -1         7 6.39776E+01
 -1         8 6.37090E+01
 -1         9 6.56095E+01
 -1        10 6.56095E+01
 -1        11 6.56095E+01
 -1        12 6.56095E+01
 -1        13 6.64525E+01
 -1        14 6.64525E+01
 -1        15 6.64525E+01
 -1        16 6.64525E+01
 -1        17 6.64525E+01
 -1        18 6.64525E+01
 -1        19 6.64525E+01
 -1        20 6.64525E+01
 -1        21 6.55630E+01
 -1        22 6.55630E+01
 -1        23 6.55630E+01
 -1        24 6.55630E+01
 -1        25 5.58580E+01
 -1        26 5.58580E+01
 -1        27 5.58580E+01
 -1        28 5.58580E+01
 -1        29 4.51891E+01
 -1        30 3.74286E+01
 -1        31 4.51891E+01
 -1        32 3.74286E+01
 -1        33 6.51489E+01
 -1        34 5.58092E+01
 -1        35 6.51489E+01
 -1        36 5.58092E+01
 -1        37 6.51489E+01
 -1        38 5.95236E+01
 -1        39 6.51489E+01
 -1        40 5.95236E+01
 -1        41 6.34660E+01
 -1        42 5.98414E+01
 -1        43 6.34660E+01
 -1        44 5.98414E+01
 -1        45 6.04139E+01
 -1        46 5.98414E+01
 -1        47 6.04139E+01
 -1        48 5.98414E+01
 -1        49 6.14975E+01
 -1        50 6.14975E+01
 -1        51 6.14975E+01
 -1        52 6.14975E+01
 -1        53 6.23890E+01
 -1        54 6.23890E+01
 -1        55 6.23890E+01
 -1        56 6.23890E+01
 -1        57 6.25833E+01
 -1        58 6.25833E+01
 -1        59 6.25833E+01
 -1        60 6.25833E+01
 -1        61 6.25833E+01
 -1        62 6.25833E+01
 -1        63 6.25833E+01
 -1        64 6.25833E+01
 -1        65 6.25108E+01
 -1        66 6.25108E+01
 -1        67 6.25108E+01
 -1        68 6.25108E+01
 -1        69 6.13525E+01
 -1        70 6.08607E+01
 -1        71 6.13525E+01
 -1        72 6.08607E+01
 -1        73 6.13525E+01
 -1        74 5.79079E+01
 -1        75 6.13525E+01
 -1        76 5.79079E+01
 -1        77 7.88027E+01
 -1        78 7.88027E+01
 -1        79 7.88027E+01
 -1        80 7.88027E+01
 -1        81 7.88027E+01
 -1        82 7.88027E+01
 -1        83 7.88027E+01
 -1        84 7.88027E+01
 -1        85 6.39776E+01
 -1        86 6.39776E+01
 -1        87 6.39776E+01
 -1        88 6.39776E+01
 -1        89 6.02222E+01
 -1        90 6.02222E+01
 -1        91 5.92143E+01
 -1        92 5.92143E+01
 -1        93 5.66849E+01
 -1        94 5.66849E+01
 -1        95 5.23161E+01
 -1        96 5.23161E+01
 -1        97 4.14300E+01
 -1        98 4.14300E+01
 -1        99 4.51891E+01
 -1       100 4.51891E+01
 -1       101 6.51489E+01
 -1       102 6.51489E+01
 -1       103 6.51489E+01
 -1       104 6.51489E+01
 -1       105 6.34660E+01
 -1       106 6.34660E+01
 -1       107 6.04139E+01
 -1       108 6.04139E+01
 -1       109 5.92793E+01
 -1       110 5.92793E+01
 -1       111 5.97038E+01
 -1       112 5.97038E+01
 -1       113 6.00507E+01
 -1       114 6.00507E+01
 -1       115 6.06199E+01
 -1       116 6.06199E+01
 -1       117 6.12090E+01
 -1       118 6.12090E+01
 -1       119 6.13525E+01
 -1       120 6.13525E+01
 -1       121 6.13525E+01
 -1       122 6.13525E+01
 -1       123 4.59551E+01
 -1       124 4.59551E+01
 -1       125 3.78469E+01
 -1       126 3.78469E+01
 -3
    1PSTEP                       101          26           3          
  100CL  126 4.60000E-01         126                     1   26           1
 -4  DISP        4    1
 -5  D1          1    2    1    0
 -5  D2          1    2    2    0
 -5  D3          1    2    3    0
 -5  ALL         1    2    0    0    1ALL
 -1         1 0.00000E+00 0.00000E+00 0.00000E+00
 -1         2 0.00000E+00 0.00000E+00 0.00000E+00
 -1         3 1.33559E-03 0.00000E+00 3.85615E-06
 -1         4 1.78218E-03 0.00000E+00-2.10828E-03
 -1         5 0.00000E+00 0.00000E+00 0.00000E+00
 -1         6 0.00000E+00 0.00000E+00 0.00000E+00
 -1         7 1.33555E-03 0.00000E+00 3.85396E-06
 -1         8 1.78214E-03 0.00000E+00-2.10826E-03
 -1         9 4.91244E-03 0.00000E+00-6.21630E-05
 -1        10 5.03447E-03 0.00000E+00-3.95558E-03
 -1        11 4.91242E-03 0.00000E+00-6.21614E-05
 -1        12 5.03445E-03 0.00000E+00-3.95556E-03
 -1        13 9.90759E-03 0.00000E+00-2.45304E-04
 -1        14 9.85057E-03 0.00000E+00-5.45463E-03
 -1        15 9.90758E-03 0.00000E+00-2.45303E-04
 -1        16 9.85056E-03 0.00000E+00-5.45461E-03
 -1        17 1.59905E-02 0.00000E+00-5.46652E-04
 -1        18 1.57495E-02 0.00000E+00-6.69478E-03
 -1        19 1.59905E-02 0.00000E+00-5.46659E-04
 -1        20 1.57495E-02 0.00000E+00-6.69479E-03
 -1        21 2.28072E-02 0.00000E+00-9.44548E-04
 -1        22 2.24235E-02 0.00000E+00-7.69793E-03
 -1        23 2.28072E-02 0.00000E+00-9.44553E-04
 -1        24 2.24235E-02 0.00000E+00-7.69794E-03
 -1        25 3.00454E-02 0.00000E+00-1.40853E-03
 -1        26 2.95628E-02 0.00000E+00-8.47067E-03
 -1        27 3.00454E-02 0.00000E+00-1.40854E-03
 -1        28 2.95628E-02 0.00000E+00-8.47068E-03
 -1        29 3.74138E-02 0.00000E+00-1.90292E-03
 -1        30 3.68793E-02 0.00000E+00-9.01907E-03
 -1        31 3.74138E-02 0.00000E+00-1.90294E-03
 -1        32 3.68793E-02 0.00000E+00-9.01907E-03
 -1        33 4.46693E-02 0.00000E+00-2.39343E-03
 -1        34 4.41235E-02 0.00000E+00-9.36551E-03
 -1        35 4.46692E-02 0.00000E+00-2.39345E-03
 -1        36 4.41234E-02 0.00000E+00-9.36552E-03
 -1        37 5.16469E-02 0.00000E+00-2.85559E-03
 -1        38 5.11196E-02 0.00000E+00-9.54663E-03
 -1        39 5.16468E-02 0.00000E+00-2.85560E-03
 -1        40 5.11196E-02 0.00000E+00-9.54665E-03
 -1        41 5.82516E-02 0.00000E+00-3.27654E-03
 -1        42 5.77613E-02 0.00000E+00-9.59678E-03
 -1        43 5.82516E-02 0.00000E+00-3.27655E-03
 -1        44 5.77613E-02 0.00000E+00-9.59680E-03
 -1        45 6.44207E-02 0.00000E+00-3.64874E-03
 -1        46 6.39768E-02 0.00000E+00-9.54201E-03
 -1        47 6.44207E-02 0.00000E+00-3.64874E-03
 -1        48 6.39768E-02 0.00000E+00-9.54200E-03
 -1        49 7.01087E-02 0.00000E+00-3.96704E-03
 -1        50 6.97157E-02 0.00000E+00-9.41078E-03
 -1        51 7.01087E-02 0.00000E+00-3.96704E-03
 -1        52 6.97157E-02 0.00000E+00-9.41080E-03
 -1        53 7.53049E-02 0.00000E+00-4.23181E-03
 -1        54 7.49655E-02 0.00000E+00-9.24186E-03
 -1        55 7.53049E-02 0.00000E+00-4.23180E-03
 -1        56 7.49654E-02 0.00000E+00-9.24188E-03
 -1        57 8.00556E-02 0.00000E+00-4.45069E-03
 -1        58 7.97673E-02 0.00000E+00-9.07866E-03
 -1        59 8.00556E-02 0.00000E+00-4.45067E-03
 -1        60 7.97673E-02 0.00000E+00-9.07866E-03
 -1        61 8.44481E-02 0.00000E+00-4.63375E-03
 -1        62 8.42022E-02 0.00000E+00-8.95209E-03
 -1        63 8.44481E-02 0.00000E+00-4.63374E-03
 -1        64 8.42022E-02 0.00000E+00-8.95209E-03
 -1        65 8.85748E-02 0.00000E+00-4.79034E-03
 -1        66 8.83627E-02 0.00000E+00-8.87028E-03
 -1        67 8.85748E-02 0.00000E+00-4.79032E-03
 -1        68 8.83627E-02 0.00000E+00-8.87025E-03
 -1        69 9.24999E-02 0.00000E+00-4.92801E-03
 -1        70 9.23153E-02 0.00000E+00-8.83214E-03
 -1        71 9.24999E-02 0.00000E+00-4.92799E-03
 -1        72 9.23153E-02 0.00000E+00-8.83215E-03
 -1        73 9.62810E-02 0.00000E+00-5.05434E-03
 -1        74 9.61150E-02 0.00000E+00-8.83809E-03
 -1        75 9.62810E-02 0.00000E+00-5.05435E-03
 -1        76 9.61150E-02 0.00000E+00-8.83809E-03
 -1        77 9.99751E-02 0.00000E+00-5.17440E-03
 -1        78 9.98385E-02 0.00000E+00-8.89934E-03
 -1        79 9.99750E-02 0.00000E+00-5.17441E-03
 -1        80 9.98385E-02 0.00000E+00-8.89939E-03
 -1        81 1.03669E-01 0.00000E+00-5.30407E-03
 -1        82 1.03491E-01 0.00000E+00-8.98623E-03
 -1        83 1.03669E-01 0.00000E+00-5.30408E-03
 -1        84 1.03491E-01 0.00000E+00-8.98628E-03
 -1        85 0.00000E+00 0.00000E+00 0.00000E+00
 -1        86 1.94656E-03 0.00000E+00 2.07809E-03
 -1        87 0.00000E+00 0.00000E+00 0.00000E+00
 -1        88 1.94654E-03 0.00000E+00 2.07809E-03
 -1        89 5.41753E-03 0.00000E+00 3.76843E-03
 -1        90 5.41754E-03 0.00000E+00 3.76845E-03
 -1        91 1.04626E-02 0.00000E+00 4.89967E-03
 -1        92 1.04627E-02 0.00000E+00 4.89968E-03
 -1        93 1.65708E-02 0.00000E+00 5.55086E-03
 -1        94 1.65709E-02 0.00000E+00 5.55088E-03
 -1        95 2.33965E-02 0.00000E+00 5.77367E-03
 -1        96 2.33966E-02 0.00000E+00 5.77367E-03
 -1        97 3.06138E-02 0.00000E+00 5.63454E-03
 -1        98 3.06139E-02 0.00000E+00 5.63452E-03
 -1        99 3.79358E-02 0.00000E+00 5.20941E-03
 -1       100 3.79358E-02 0.00000E+00 5.20938E-03
 -1       101 4.51304E-02 0.00000E+00 4.58647E-03
 -1       102 4.51304E-02 0.00000E+00 4.58645E-03
 -1       103 5.20411E-02 0.00000E+00 3.84978E-03
 -1       104 5.20411E-02 0.00000E+00 3.84977E-03
 -1       105 5.85779E-02 0.00000E+00 3.06168E-03
 -1       106 5.85779E-02 0.00000E+00 3.06167E-03
 -1       107 6.46833E-02 0.00000E+00 2.26463E-03
 -1       108 6.46833E-02 0.00000E+00 2.26461E-03
 -1       109 7.03181E-02 0.00000E+00 1.49575E-03
 -1       110 7.03182E-02 0.00000E+00 1.49574E-03
 -1       111 7.54755E-02 0.00000E+00 7.93938E-04
 -1       112 7.54755E-02 0.00000E+00 7.93957E-04
 -1       113 8.02033E-02 0.00000E+00 1.90275E-04
 -1       114 8.02034E-02 0.00000E+00 1.90289E-04
 -1       115 8.45850E-02 0.00000E+00-3.05383E-04
 -1       116 8.45850E-02 0.00000E+00-3.05366E-04
 -1       117 8.87059E-02 0.00000E+00-7.03732E-04
 -1       118 8.87059E-02 0.00000E+00-7.03733E-04
 -1       119 9.26303E-02 0.00000E+00-1.01930E-03
 -1       120 9.26303E-02 0.00000E+00-1.01929E-03
 -1       121 9.64109E-02 0.00000E+00-1.26342E-03
 -1       122 9.64109E-02 0.00000E+00-1.26344E-03
 -1       123 1.00124E-01 0.00000E+00-1.44701E-03
 -1       124 1.00124E-01 0.00000E+00-1.44699E-03
 -1       125 1.03766E-01 0.00000E+00-1.58779E-03
 -1       126 1.03766E-01 0.00000E+00-1.58780E-03
 -3
    1PSTEP                       102          26           3          
  100CL  126 4.60000E-01         126                     1   26           1
 -4  STRESS      6    1
 -5  SXX         1    4    1    1
 -5  SYY         1    4    2    2
 -5  SZZ         1    4    3    3
 -5  SXY         1    4    1    2
 -5  SYZ         1    4    2    3
 -5  SZX         1    4    3    1
 -1         1-9.47454E+03-9.78933E+03-2.13123E+04 1.50794E-04-1.62931E-04 4.76821E+03
 -1         2 2.51298E+02 1.00175E+02-1.29095E+02-2.14294E-05-1.45917E-04 4.10091E+03
 -1         3 8.28936E+01 3.36015E+00-1.42815E+02-2.10813E-02-1.28167E-03 1.10646E+03
 -1         4-3.35015E+03-6.54404E+03-1.73987E+04-2.03931E-02 8.69263E-03 8.56966E+02
 -1         5-9.47447E+03-9.78925E+03-2.13121E+04 1.50794E-04-1.62929E-04 4.76811E+03
 -1         6 2.51268E+02 1.00160E+02-1.29129E+02-2.14312E-05-1.45917E-04 4.10078E+03
 -1         7 8.27915E+01 3.31402E+00-1.42853E+02-2.10813E-02-1.28167E-03 1.10645E+03
 -1         8-3.35009E+03-6.54399E+03-1.73986E+04-2.03931E-02 8.69263E-03 8.56996E+02
 -1         9 1.34228E+02 9.84542E+01 9.37623E+01-9.45662E-03 7.89499E-04 1.30006E+03
 -1        10-3.89631E+03-5.69493E+03-1.43632E+04-1.18433E-02 1.12297E-02-3.84860E+00
 -1        11 1.34031E+02 9.83712E+01 9.36869E+01-9.45661E-03 7.89494E-04 1.30012E+03
 -1        12-3.89636E+03-5.69495E+03-1.43632E+04-1.18433E-02 1.12297E-02-3.75086E+00
 -1        13 2.04016E+02 1.40475E+02 2.22234E+02-3.50964E-03 3.39053E-04 1.11637E+03
 -1        14-2.53958E+03-3.97815E+03-1.03547E+04-7.32947E-03 8.76634E-03 2.68445E+01
 -1        15 2.03779E+02 1.40361E+02 2.22094E+02-3.50964E-03 3.39052E-04 1.11640E+03
 -1        16-2.53974E+03-3.97827E+03-1.03549E+04-7.32946E-03 8.76633E-03 2.68915E+01
 -1        17 2.29469E+02 1.59620E+02 2.86123E+02-1.84659E-03-3.37072E-03 1.01591E+03
 -1        18-1.72187E+03-2.68614E+03-7.06198E+03-1.15765E-02-2.84838E-03 8.40461E+01
 -1        19 2.29131E+02 1.59470E+02 2.85963E+02-1.84659E-03-3.37072E-03 1.01593E+03
 -1        20-1.72214E+03-2.68629E+03-7.06221E+03-1.15765E-02-2.84838E-03 8.40556E+01
 -1        21 2.31302E+02 1.59872E+02 3.00392E+02 1.13138E-02-2.79959E-03 9.10870E+02
 -1        22-9.40320E+02-1.52830E+03-4.09407E+03-5.57581E-03-4.34831E-03 2.52289E+02
 -1        23 2.30890E+02 1.59700E+02 3.00229E+02 1.13137E-02-2.79959E-03 9.10894E+02
 -1        24-9.40650E+02-1.52844E+03-4.09419E+03-5.57580E-03-4.34831E-03 2.52318E+02
 -1        25 2.13420E+02 1.43668E+02 2.69996E+02 5.94383E-03-2.42749E-03 7.84621E+02
 -1        26-2.72684E+02-5.33809E+02-1.49317E+03-3.36844E-03-2.74221E-04 4.24895E+02
 -1        27 2.13107E+02 1.43516E+02 2.69801E+02 5.94382E-03-2.42748E-03 7.84610E+02
 -1        28-2.72869E+02-5.33880E+02-1.49323E+03-3.36843E-03-2.74221E-04 4.24910E+02
 -1        29 1.76145E+02 1.16865E+02 2.17730E+02-5.17351E-03-8.55570E-03 6.18723E+02
 -1        30 2.65580E+02 2.73553E+02 6.54550E+02-7.94209E-03-8.18215E-04 5.39803E+02
 -1        31 1.75886E+02 1.16733E+02 2.17548E+02-5.17350E-03-8.55570E-03 6.18710E+02
 -1        32 2.65451E+02 2.73476E+02 6.54421E+02-7.94209E-03-8.18214E-04 5.39785E+02
 -1        33 1.22193E+02 8.44095E+01 1.60336E+02-1.48813E-02-8.77998E-03 4.39694E+02
 -1        34 6.43796E+02 8.61228E+02 2.24957E+03-2.48087E-02-6.84307E-03 5.77642E+02
 -1        35 1.21833E+02 8.42627E+01 1.60206E+02-1.48813E-02-8.77998E-03 4.39697E+02
 -1        36 6.43510E+02 8.61074E+02 2.24934E+03-2.48087E-02-6.84306E-03 5.77607E+02
 -1        37 7.63608E+01 5.51788E+01 1.04884E+02-1.06496E-02-5.47414E-03 2.90232E+02
 -1        38 8.91864E+02 1.25339E+03 3.32657E+03-2.45546E-02-1.28924E-02 5.67263E+02
 -1        39 7.60062E+01 5.50430E+01 1.04786E+02-1.06496E-02-5.47414E-03 2.90254E+02
 -1        40 8.91590E+02 1.25327E+03 3.32646E+03-2.45546E-02-1.28924E-02 5.67252E+02
 -1        41 4.87192E+01 3.38224E+01 5.83741E+01-4.59564E-03-3.62535E-03 1.78729E+02
 -1        42 1.04841E+03 1.50225E+03 4.01432E+03-1.75903E-02-8.21299E-03 5.30790E+02
 -1        43 4.84181E+01 3.37069E+01 5.82892E+01-4.59564E-03-3.62535E-03 1.78759E+02
 -1        44 1.04823E+03 1.50222E+03 4.01441E+03-1.75902E-02-8.21299E-03 5.30815E+02
 -1        45 2.49438E+01 2.02532E+01 3.54654E+01-3.33660E-03-4.66064E-04 7.75538E+01
 -1        46 1.11742E+03 1.63269E+03 4.38912E+03-1.30102E-02 4.60109E-03 4.58952E+02
 -1        47 2.46590E+01 2.01383E+01 3.53671E+01-3.33660E-03-4.66065E-04 7.76062E+01
 -1        48 1.11723E+03 1.63260E+03 4.38904E+03-1.30101E-02 4.60109E-03 4.59008E+02
 -1        49-2.87286E+00 1.42184E+01 4.31649E+01-5.06665E-03 7.99241E-04-3.32356E+01
 -1        50 1.09409E+03 1.63922E+03 4.43472E+03-1.16560E-02-7.11505E-03 3.42457E+02
 -1        51-3.20058E+00 1.40979E+01 4.30906E+01-5.06664E-03 7.99240E-04-3.32281E+01
 -1        52 1.09388E+03 1.63908E+03 4.43448E+03-1.16560E-02-7.11504E-03 3.42395E+02
 -1        53-1.76664E+01 1.83915E+01 7.28014E+01-2.23491E-03 6.78055E-03-1.33837E+02
 -1        54 1.00017E+03 1.52285E+03 4.13179E+03-1.71841E-02-1.39936E-02 2.07250E+02
 -1        55-1.79821E+01 1.82865E+01 7.27662E+01-2.23491E-03 6.78055E-03-1.33838E+02
 -1        56 9.99915E+02 1.52276E+03 4.13176E+03-1.71841E-02-1.39936E-02 2.07183E+02
 -1        57-2.01988E+01 2.75522E+01 1.07336E+02 1.32480E-02 1.01238E-02-1.89086E+02
 -1        58 8.56409E+02 1.30987E+03 3.55100E+03 4.02080E-03-2.96061E-03 9.51141E+01
 -1        59-2.05490E+01 2.73995E+01 1.07177E+02 1.32480E-02 1.01238E-02-1.89094E+02
 -1        60 8.56297E+02 1.30986E+03 3.55108E+03 4.02080E-03-2.96061E-03 9.50814E+01
 -1        61-1.95607E+01 3.66811E+01 1.38695E+02 1.69948E-03 4.77861E-03-1.90593E+02
 -1        62 6.87111E+02 1.05835E+03 2.86764E+03-4.94010E-03-1.48397E-03 2.99777E+01
 -1        63-1.97860E+01 3.65899E+01 1.38615E+02 1.69948E-03 4.77861E-03-1.90666E+02
 -1        64 6.87063E+02 1.05839E+03 2.86781E+03-4.94010E-03-1.48397E-03 2.99283E+01
 -1        65-5.62347E+00 4.94053E+01 1.68642E+02-2.77234E-03 1.12287E-02-1.70275E+02
 -1        66 5.37312E+02 8.25727E+02 2.23169E+03-2.45174E-03 1.78165E-02-3.65554E+00
 -1        67-5.78882E+00 4.93474E+01 1.68613E+02-2.77234E-03 1.12287E-02-1.70239E+02
 -1        68 5.37292E+02 8.25705E+02 2.23164E+03-2.45174E-03 1.78165E-02-3.63037E+00
 -1        69 2.23184E+00 5.54987E+01 1.82076E+02-6.59755E-03 1.12137E-02-1.57626E+02
 -1        70 4.09902E+02 6.19083E+02 1.66318E+03-9.30073E-03-5.58533E-03-3.80443E+01
 -1        71 1.91376E+00 5.53259E+01 1.81818E+02-6.59754E-03 1.12137E-02-1.57695E+02
 -1        72 4.09783E+02 6.18996E+02 1.66301E+03-9.30073E-03-5.58532E-03-3.81486E+01
 -1        73 7.65191E+00 5.69482E+01 1.82118E+02-1.71519E-02-3.72729E-03-1.47170E+02
 -1        74 2.43466E+02 3.92923E+02 1.07041E+03-2.52285E-03 1.08603E-03-3.72653E+01
 -1        75 7.54025E+00 5.68557E+01 1.81921E+02-1.71519E-02-3.72729E-03-1.47140E+02
 -1        76 2.43683E+02 3.92967E+02 1.07033E+03-2.52285E-03 1.08602E-03-3.72556E+01
 -1        77 1.66378E+00 3.80094E+01 1.24901E+02-4.00561E-03-5.70012E-03-9.49289E+01
 -1        78 2.94917E+02 2.96887E+02 6.96511E+02-1.21996E-02-2.41204E-02-9.88164E+01
 -1        79 1.55252E+00 3.79683E+01 1.24876E+02-4.00560E-03-5.70012E-03-9.49746E+01
 -1        80 2.94658E+02 2.96717E+02 6.96203E+02-1.21996E-02-2.41203E-02-9.88700E+01
 -1        81 2.58988E+01 3.02074E+01 7.52861E+01 2.80011E-03-3.84862E-03-1.49005E+01
 -1        82-2.46241E+02 2.29373E+01 3.23500E+02 1.69637E-02-2.45661E-02-6.94077E+01
 -1        83 2.59426E+01 3.02397E+01 7.53493E+01 2.80011E-03-3.84862E-03-1.49181E+01
 -1        84-2.45891E+02 2.30931E+01 3.23668E+02 1.69637E-02-2.45661E-02-6.93631E+01
 -1        85 9.97410E+03 9.56562E+03 2.38447E+04-1.37473E-05-5.84524E-05 6.79932E+03
 -1        86 3.23271E+03 6.44499E+03 1.93984E+04-9.29941E-03 4.84261E-03 2.44222E+03
 -1        87 9.97413E+03 9.56565E+03 2.38448E+04-1.37488E-05-5.84526E-05 6.79926E+03
 -1        88 3.23253E+03 6.44494E+03 1.93984E+04-9.29940E-03 4.84261E-03 2.44221E+03
 -1        89 3.78032E+03 5.68684E+03 1.60018E+04 9.33812E-03 1.00694E-02 1.87956E+03
 -1        90 3.77998E+03 5.68671E+03 1.60017E+04 9.33810E-03 1.00694E-02 1.87959E+03
 -1        91 2.75448E+03 4.19643E+03 1.17014E+04 1.45746E-02 8.07499E-03 1.86655E+03
 -1        92 2.75413E+03 4.19629E+03 1.17013E+04 1.45746E-02 8.07499E-03 1.86656E+03
 -1        93 2.02269E+03 2.97653E+03 8.14272E+03 2.25143E-02 1.01901E-02 1.56325E+03
 -1        94 2.02220E+03 2.97631E+03 8.14248E+03 2.25142E-02 1.01901E-02 1.56325E+03
 -1        95 1.27343E+03 1.83433E+03 4.94347E+03 3.57359E-02 6.19239E-04 1.21250E+03
 -1        96 1.27284E+03 1.83403E+03 4.94304E+03 3.57358E-02 6.19237E-04 1.21248E+03
 -1        97 5.95367E+02 8.17832E+02 2.16002E+03 2.12524E-02-1.07089E-02 8.23732E+02
 -1        98 5.94928E+02 8.17597E+02 2.15967E+03 2.12524E-02-1.07089E-02 8.23709E+02
 -1        99 1.12413E+01-3.68442E+01-1.27480E+02 1.01792E-02-1.58608E-02 4.44708E+02
 -1       100 1.09074E+01-3.69859E+01-1.27620E+02 1.01792E-02-1.58608E-02 4.44732E+02
 -1       101-4.53209E+02-6.91834E+02-1.83946E+03 1.02410E-02-8.00936E-03 1.27120E+02
 -1       102-4.53675E+02-6.92004E+02-1.83956E+03 1.02409E-02-8.00936E-03 1.27152E+02
 -1       103-7.77978E+02-1.14677E+03-3.01386E+03 1.36329E-02-4.12774E-03-9.47752E+01
 -1       104-7.78471E+02-1.14697E+03-3.01406E+03 1.36329E-02-4.12774E-03-9.47499E+01
 -1       105-9.76448E+02-1.43846E+03-3.77076E+03 1.45630E-02-6.19483E-03-2.30809E+02
 -1       106-9.76875E+02-1.43866E+03-3.77099E+03 1.45630E-02-6.19482E-03-2.30776E+02
 -1       107-1.08419E+03-1.59834E+03-4.18441E+03 1.54113E-02-9.41242E-03-3.16361E+02
 -1       108-1.08457E+03-1.59850E+03-4.18457E+03 1.54112E-02-9.41241E-03-3.16269E+02
 -1       109-1.10976E+03-1.62106E+03-4.23261E+03 2.29753E-02-3.66347E-03-3.74586E+02
 -1       110-1.11026E+03-1.62123E+03-4.23267E+03 2.29753E-02-3.66346E-03-3.74522E+02
 -1       111-1.03286E+03-1.49305E+03-3.89198E+03 1.97615E-02 9.59947E-03-3.97626E+02
 -1       112-1.03326E+03-1.49320E+03-3.89206E+03 1.97615E-02 9.59948E-03-3.97584E+02
 -1       113-8.85136E+02-1.25742E+03-3.26960E+03 3.75255E-02 6.87437E-03-3.73998E+02
 -1       114-8.85656E+02-1.25765E+03-3.26983E+03 3.75254E-02 6.87437E-03-3.73977E+02
 -1       115-7.16491E+02-9.89336E+02-2.55903E+03 1.60375E-02 8.73266E-03-3.15480E+02
 -1       116-7.16845E+02-9.89506E+02-2.55924E+03 1.60375E-02 8.73264E-03-3.15565E+02
 -1       117-5.39303E+02-7.30261E+02-1.88285E+03 1.47586E-02-5.84761E-04-2.50923E+02
 -1       118-5.39705E+02-7.30452E+02-1.88308E+03 1.47586E-02-5.84755E-04-2.50852E+02
 -1       119-3.86736E+02-4.99551E+02-1.27272E+03 1.38758E-02 3.70439E-03-2.07210E+02
 -1       120-3.87212E+02-4.99776E+02-1.27300E+03 1.38758E-02 3.70439E-03-2.07199E+02
 -1       121-2.07111E+02-2.72791E+02-7.00363E+02 7.72238E-04-7.19646E-03-1.54908E+02
 -1       122-2.07461E+02-2.72921E+02-7.00446E+02 7.72238E-04-7.19646E-03-1.54915E+02
 -1       123-2.46840E+02-1.66555E+02-3.07630E+02 1.01168E-03 1.21632E-02-1.55631E+02
 -1       124-2.46910E+02-1.66573E+02-3.07617E+02 1.01167E-03 1.21632E-02-1.55690E+02
 -1       125 3.71438E+02 1.52374E+02 1.37459E+02 1.59950E-02-4.77009E-03-2.36619E+02
 -1       126 3.71032E+02 1.52113E+02 1.36995E+02 1.59949E-02-4.77008E-03-2.36525E+02
 -3
    1PSTEP                       103          26           3          
  100CL  126 4.60000E-01         126                     1   26           1
 -4  TOSTRAIN    6    1
 -5  EXX         1    4    1    1
 -5  EYY         1    4    2    2
 -5  EZZ         1    4    3    3
 -5  EXY         1    4    1    2
 -5  EYZ         1    4    2    3
 -5  EZX         1    4    3    1
 -1         1-1.55513E-04-1.71738E-15-4.07958E-02 3.18668E-10-1.30979E-13 1.78216E-02
 -1         2-1.55586E-04-1.48242E-15 2.78258E-04-4.32312E-11-1.78000E-13 1.33557E-02
 -1         3-8.40997E-04 7.91883E-15 7.05613E-04-6.81717E-08-6.96928E-09 3.60280E-03
 -1         4 9.73134E-03 9.31027E-15-3.75262E-02-6.79408E-08 2.67546E-08 5.11110E-03
 -1         5-1.55510E-04-1.71738E-15-4.07955E-02 3.18666E-10-1.30979E-13 1.78212E-02
 -1         6-1.55586E-04-1.48242E-15 2.78193E-04-4.32336E-11-1.78000E-13 1.33553E-02
 -1         7-8.41213E-04 7.91883E-15 7.05633E-04-6.81717E-08-6.96927E-09 3.60275E-03
 -1         8 9.73135E-03 9.31027E-15-3.75259E-02-6.79408E-08 2.67546E-08 5.11118E-03
 -1         9-9.02501E-04 6.32927E-16 1.20444E-03-3.07777E-08 1.35205E-11 4.17177E-03
 -1        10 5.39115E-03 5.33782E-15-2.96037E-02-4.16435E-08 3.45185E-08 2.80894E-03
 -1        11-9.02914E-04 6.32927E-16 1.20450E-03-3.07777E-08 1.35095E-11 4.17194E-03
 -1        12 5.39102E-03 5.33782E-15-2.96037E-02-4.16435E-08 3.45184E-08 2.80927E-03
 -1        13-7.72890E-04-6.29367E-16 1.31855E-03-1.13992E-08-1.33875E-10 3.53061E-03
 -1        14 4.24294E-03 2.26685E-15-2.12585E-02-2.68768E-08 2.65104E-08 2.84769E-03
 -1        15-7.73315E-04-6.29367E-16 1.31848E-03-1.13992E-08-1.33878E-10 3.53068E-03
 -1        16 4.24275E-03 2.26685E-15-2.12588E-02-2.68767E-08 2.65104E-08 2.84787E-03
 -1        17-6.97051E-04-1.48253E-15 1.35771E-03-4.47953E-09-1.15362E-08 3.16814E-03
 -1        18 2.72966E-03 2.35014E-15-1.42660E-02-3.61953E-08-1.40775E-08 2.45942E-03
 -1        19-6.97678E-04-1.48253E-15 1.35769E-03-4.47952E-09-1.15362E-08 3.16812E-03
 -1        20 2.72928E-03 2.35014E-15-1.42663E-02-3.61953E-08-1.40775E-08 2.45944E-03
 -1        21-6.14886E-04 1.02193E-15 1.29611E-03 3.77427E-08-4.04736E-09 2.81275E-03
 -1        22 1.46893E-03-1.73326E-17-8.05547E-03-1.59643E-08-1.66321E-08 2.20160E-03
 -1        23-6.15670E-04 1.02193E-15 1.29614E-03 3.77426E-08-4.04735E-09 2.81272E-03
 -1        24 1.46828E-03-1.73326E-17-8.05540E-03-1.59642E-08-1.66322E-08 2.20160E-03
 -1        25-5.08863E-04-9.93582E-17 1.12886E-03 2.02803E-08-5.07487E-09 2.41517E-03
 -1        26 3.67888E-04-1.15758E-16-2.67326E-03-1.07007E-08-2.44177E-09 1.89309E-03
 -1        27-5.09367E-04-9.93582E-17 1.12871E-03 2.02803E-08-5.07487E-09 2.41508E-03
 -1        28 3.67517E-04-1.15758E-16-2.67320E-03-1.07007E-08-2.44177E-09 1.89308E-03
 -1        29-3.86799E-04 1.06185E-15 8.92585E-04-1.25757E-08-2.98821E-08 1.90525E-03
 -1        30-5.04700E-04 5.52923E-16 1.69420E-03-2.51469E-08-6.29847E-09 1.50040E-03
 -1        31-3.87191E-04 1.06185E-15 8.92404E-04-1.25757E-08-2.98821E-08 1.90518E-03
 -1        32-5.04850E-04 5.52923E-16 1.69401E-03-2.51469E-08-6.29846E-09 1.50034E-03
 -1        33-2.86553E-04 4.81797E-15 6.49838E-04-4.38390E-08-3.49839E-08 1.35330E-03
 -1        34-1.13606E-03 1.29827E-14 4.88026E-03-7.66124E-08-3.30645E-08 1.07113E-03
 -1        35-2.87233E-04 4.81797E-15 6.49882E-04-4.38390E-08-3.49839E-08 1.35321E-03
 -1        36-1.13646E-03 1.29827E-14 4.87999E-03-7.66124E-08-3.30645E-08 1.07100E-03
 -1        37-2.01681E-04 1.45865E-15 4.35351E-04-3.19094E-08-2.22742E-08 8.95546E-04
 -1        38-1.53866E-03 1.50437E-14 6.99285E-03-7.33235E-08-5.17536E-08 7.14654E-04
 -1        39-2.02396E-04 1.45865E-15 4.35477E-04-3.19094E-08-2.22742E-08 8.95506E-04
 -1        40-1.53916E-03 1.50437E-14 6.99284E-03-7.33234E-08-5.17536E-08 7.14550E-04
 -1        41-1.24221E-04-3.25612E-16 2.62745E-04-1.33429E-08-1.35791E-08 5.57532E-04
 -1        42-1.77410E-03 6.80227E-15 8.31559E-03-5.32417E-08-3.33547E-08 4.50012E-04
 -1        43-1.24838E-04-3.25612E-16 2.62860E-04-1.33429E-08-1.35791E-08 5.57540E-04
 -1        44-1.77458E-03 6.80227E-15 8.31596E-03-5.32416E-08-3.33548E-08 4.49984E-04
 -1        45-7.53748E-05-6.99044E-16 1.53485E-04-1.06233E-08-2.74835E-09 2.40713E-04
 -1        46-1.90002E-03 3.13291E-15 9.01201E-03-4.37053E-08 9.77443E-09 1.98723E-04
 -1        47-7.59576E-05-6.99044E-16 1.53569E-04-1.06233E-08-2.74835E-09 2.40807E-04
 -1        48-1.90042E-03 3.13291E-15 9.01205E-03-4.37053E-08 9.77442E-09 1.98854E-04
 -1        49-6.33748E-05-1.03990E-15 1.15162E-04-1.66926E-08 7.61090E-10-1.21634E-04
 -1        50-1.90837E-03 3.28167E-15 9.04882E-03-3.50907E-08-2.68490E-08-8.91521E-05
 -1        51-6.40392E-05-1.03990E-15 1.15304E-04-1.66925E-08 7.61088E-10-1.21700E-04
 -1        52-1.90859E-03 3.28167E-15 9.04845E-03-3.50907E-08-2.68490E-08-8.93387E-05
 -1        53-5.54124E-05-1.39024E-15 1.26647E-04-9.45863E-09 2.11389E-08-4.55306E-04
 -1        54-1.75128E-03 6.93106E-15 8.38268E-03-5.09825E-08-5.03870E-08-3.49988E-04
 -1        55-5.60835E-05-1.39024E-15 1.26863E-04-9.45863E-09 2.11389E-08-4.55402E-04
 -1        56-1.75178E-03 6.93106E-15 8.38279E-03-5.09824E-08-5.03870E-08-3.50270E-04
 -1        57-5.77323E-05 3.68964E-15 1.70922E-04 3.98360E-08 3.67192E-08-6.41752E-04
 -1        58-1.46973E-03-1.47679E-15 7.17029E-03 1.38586E-08-8.33809E-09-4.96374E-04
 -1        59-5.83655E-05 3.68964E-15 1.70893E-04 3.98359E-08 3.67192E-08-6.41839E-04
 -1        60-1.47005E-03-1.47679E-15 7.17056E-03 1.38586E-08-8.33808E-09-4.96538E-04
 -1        61-8.40094E-05-2.95190E-16 2.38986E-04 4.16553E-09 1.58926E-08-6.53874E-04
 -1        62-1.17864E-03-4.53438E-16 5.78111E-03-1.55777E-08-6.18709E-09-5.07427E-04
 -1        63-8.44001E-05-2.95190E-16 2.38981E-04 4.16553E-09 1.58926E-08-6.54148E-04
 -1        64-1.17888E-03-4.53438E-16 5.78150E-03-1.55777E-08-6.18708E-09-5.07640E-04
 -1        65-9.20768E-05 1.98580E-15 3.03875E-04-1.19289E-08 3.56390E-08-5.91481E-04
 -1        66-9.03631E-04 5.08855E-15 4.49195E-03-1.26074E-08 5.67232E-08-4.54918E-04
 -1        67-9.24405E-05 1.98580E-15 3.03987E-04-1.19289E-08 3.56390E-08-5.91404E-04
 -1        68-9.03640E-04 5.08855E-15 4.49187E-03-1.26074E-08 5.67232E-08-4.54832E-04
 -1        69-9.37603E-05 1.80562E-15 3.33075E-04-2.41956E-08 3.46189E-08-5.50980E-04
 -1        70-6.38616E-04 6.66909E-16 3.32726E-03-2.87171E-08-2.04058E-08-4.35796E-04
 -1        71-9.41970E-05 1.80562E-15 3.32763E-04-2.41956E-08 3.46189E-08-5.51216E-04
 -1        72-6.38670E-04 6.66909E-16 3.32694E-03-2.87171E-08-2.04058E-08-4.36115E-04
 -1        73-8.67872E-05 4.97422E-15 3.33134E-04-5.46809E-08-1.62899E-08-5.15072E-04
 -1        74-4.52914E-04-1.57892E-15 2.15821E-03-8.43061E-09 2.89873E-09-3.20861E-04
 -1        75-8.68635E-05 4.97422E-15 3.32809E-04-5.46809E-08-1.62899E-08-5.14956E-04
 -1        76-4.52359E-04-1.57892E-15 2.15785E-03-8.43062E-09 2.89873E-09-3.20760E-04
 -1        77-7.01972E-05-3.08501E-16 2.34705E-04-1.16157E-08-1.94459E-08-3.34679E-04
 -1        78 4.76693E-05 1.16364E-14 1.24033E-03-3.37542E-08-8.09884E-08-4.13121E-04
 -1        79-7.04020E-05-3.08501E-16 2.34732E-04-1.16156E-08-1.94459E-08-3.34846E-04
 -1        80 4.74037E-05 1.16364E-14 1.23986E-03-3.37542E-08-8.09884E-08-4.13282E-04
 -1        81-7.17492E-06-8.36672E-16 1.38564E-04 1.00050E-08-1.18023E-08-5.94219E-05
 -1        82-8.33019E-04 1.38677E-14 9.32189E-04 6.08518E-08-7.54855E-08-3.58912E-04
 -1        83-7.12726E-06-8.36672E-16 1.38656E-04 1.00050E-08-1.18023E-08-5.94836E-05
 -1        84-8.32408E-04 1.38677E-14 9.32255E-04 6.08519E-08-7.54855E-08-3.58727E-04
 -1        85-1.55660E-04-2.85246E-16 4.30264E-02 4.31611E-11-3.74159E-14 1.94653E-02
 -1        86-1.14133E-02 9.34613E-16 3.98551E-02-3.06461E-08 1.38485E-08 5.23247E-03
 -1        87-1.55663E-04-2.85246E-16 4.30265E-02 4.31593E-11-3.74159E-14 1.94651E-02
 -1        88-1.14138E-02 9.34613E-16 3.98553E-02-3.06461E-08 1.38485E-08 5.23243E-03
 -1        89-7.19615E-03 1.47547E-15 3.22984E-02 2.75463E-08 3.35738E-08 2.76321E-03
 -1        90-7.19685E-03 1.47547E-15 3.22985E-02 2.75463E-08 3.35738E-08 2.76324E-03
 -1        91-5.78872E-03 4.18354E-15 2.42264E-02 4.41584E-08 3.01249E-08 2.78046E-03
 -1        92-5.78939E-03 4.18354E-15 2.42264E-02 4.41584E-08 3.01249E-08 2.78040E-03
 -1        93-4.12376E-03 9.42521E-15 1.71555E-02 6.82784E-08 4.09995E-08 2.41093E-03
 -1        94-4.12463E-03 9.42521E-15 1.71554E-02 6.82783E-08 4.09995E-08 2.41083E-03
 -1        95-2.69870E-03 2.39153E-14 1.07033E-02 1.14629E-07 1.74156E-08 2.14894E-03
 -1        96-2.69962E-03 2.39153E-14 1.07029E-02 1.14629E-07 1.74156E-08 2.14883E-03
 -1        97-1.38561E-03 1.01660E-14 4.94548E-03 7.33572E-08-2.45440E-08 1.83637E-03
 -1        98-1.38625E-03 1.01660E-14 4.94510E-03 7.33572E-08-2.45440E-08 1.83626E-03
 -1        99-2.68898E-04 6.20323E-15 1.12909E-04 4.02223E-08-4.63090E-08 1.44689E-03
 -1       100-2.69532E-04 6.20323E-15 1.12928E-04 4.02222E-08-4.63090E-08 1.44688E-03
 -1       101 5.62958E-04 1.27487E-15-3.55295E-03 3.66371E-08-2.12499E-08 1.02591E-03
 -1       102 5.61992E-04 1.27487E-15-3.55272E-03 3.66371E-08-2.12500E-08 1.02585E-03
 -1       103 1.13530E-03 2.16659E-15-6.08618E-03 4.57317E-08-7.44113E-09 6.76244E-04
 -1       104 1.13436E-03 2.16659E-15-6.08613E-03 4.57317E-08-7.44112E-09 6.76195E-04
 -1       105 1.52566E-03 3.98095E-15-7.73046E-03 4.95427E-08-1.41295E-08 4.21184E-04
 -1       106 1.52490E-03 3.98095E-15-7.73056E-03 4.95426E-08-1.41295E-08 4.21212E-04
 -1       107 1.74928E-03 5.26077E-15-8.64028E-03 5.33971E-08-2.46965E-08 1.85185E-04
 -1       108 1.74851E-03 5.26077E-15-8.64021E-03 5.33971E-08-2.46965E-08 1.85396E-04
 -1       109 1.78162E-03 8.14595E-15-8.77004E-03 7.55781E-08-3.72189E-09-8.97062E-05
 -1       110 1.78051E-03 8.14595E-15-8.76966E-03 7.55780E-08-3.72189E-09-8.96574E-05
 -1       111 1.64046E-03 7.70188E-15-8.07949E-03 6.08387E-08 3.79105E-08-3.44188E-04
 -1       112 1.63961E-03 7.70188E-15-8.07926E-03 6.08386E-08 3.79106E-08-3.44159E-04
 -1       113 1.35427E-03 2.73912E-14-6.78102E-03 1.19506E-07 3.38818E-08-4.86488E-04
 -1       114 1.35331E-03 2.73912E-14-6.78104E-03 1.19506E-07 3.38818E-08-4.86509E-04
 -1       115 1.01062E-03 5.45839E-15-5.28400E-03 4.95428E-08 3.29683E-08-5.00072E-04
 -1       116 1.01008E-03 5.45839E-15-5.28419E-03 4.95427E-08 3.29682E-08-5.00390E-04
 -1       117 7.19478E-04 2.92964E-15-3.87648E-03 4.79806E-08 2.06858E-09-4.53166E-04
 -1       118 7.18759E-04 2.92964E-15-3.87659E-03 4.79806E-08 2.06858E-09-4.52983E-04
 -1       119 4.51095E-04 2.16244E-15-2.61228E-03 4.40425E-08 1.55893E-08-4.43483E-04
 -1       120 4.50276E-04 2.16244E-15-2.61244E-03 4.40425E-08 1.55893E-08-4.43500E-04
 -1       121 2.79339E-04-1.04840E-15-1.46034E-03 4.25102E-09-2.31847E-08-3.77866E-04
 -1       122 2.78632E-04-1.04840E-15-1.46019E-03 4.25102E-09-2.31847E-08-3.77956E-04
 -1       123-1.88064E-04 6.84298E-16-5.33253E-04 3.73574E-10 3.96871E-08-4.86134E-04
 -1       124-1.88208E-04 6.84298E-16-5.33183E-04 3.73555E-10 3.96871E-08-4.86343E-04
 -1       125 8.18669E-04 3.69977E-15-1.58130E-04 5.29264E-08-1.15992E-08-7.03563E-04
 -1       126 8.18154E-04 3.69977E-15-1.58746E-04 5.29264E-08-1.15992E-08-7.03249E-04
 -3
    1PSTEP                       104          26           3          
  100CL  126 4.60000E-01         126                     1   26           1
 -4  ERROR       1    1
 -5  STR(%)      1    1    0    0
 -1         1 6.31502E+01
 -1         2 6.39069E+01
 -1         3 6.39069E+01
 -1         4 6.37211E+01
 -1         5 6.31502E+01
 -1         6 6.39069E+01
 -1         7 6.39069E+01
 -1         8 6.37211E+01
 -1         9 6.57448E+01
 -1        10 6.57448E+01
 -1        11 6.57448E+01
 -1        12 6.57448E+01
 -1        13 6.70058E+01
 -1        14 6.70058E+01
 -1        15 6.70058E+01
 -1        16 6.70058E+01
 -1        17 6.70058E+01
 -1        18 6.70058E+01
 -1        19 6.70058E+01
 -1        20 6.70058E+01
 -1        21 6.66805E+01
 -1        22 6.66805E+01
 -1        23 6.66805E+01
 -1        24 6.66805E+01
 -1        25 5.82079E+01
 -1        26 5.82079E+01
 -1        27 5.82079E+01
 -1        28 5.82079E+01
 -1        29 4.21699E+01
 -1        30 3.66618E+01
 -1        31 4.21699E+01
 -1        32 3.66618E+01
 -1        33 6.67256E+01
 -1        34 5.43132E+01
 -1        35 6.67256E+01
 -1        36 5.43132E+01
 -1        37 6.67256E+01
 -1        38 5.84930E+01
 -1        39 6.67256E+01
 -1        40 5.84930E+01
 -1        41 6.49093E+01
 -1        42 5.93125E+01
 -1        43 6.49093E+01
 -1        44 5.93125E+01
 -1        45 6.21334E+01
 -1        46 5.93125E+01
 -1        47 6.21334E+01
 -1        48 5.93125E+01
 -1        49 6.11335E+01
 -1        50 5.95156E+01
 -1        51 6.11335E+01
 -1        52 5.95156E+01
 -1        53 6.27510E+01
 -1        54 5.99999E+01
 -1        55 6.27510E+01
 -1        56 5.99999E+01
 -1        57 6.42335E+01
 -1        58 5.99999E+01
 -1        59 6.42335E+01
 -1        60 5.99999E+01
 -1        61 6.64569E+01
 -1        62 5.92270E+01
 -1        63 6.64569E+01
 -1        64 5.92270E+01
 -1        65 6.90681E+01
 -1        66 5.71060E+01
 -1        67 6.90681E+01
 -1        68 5.71060E+01
 -1        69 7.02317E+01
 -1        70 5.39561E+01
 -1        71 7.02317E+01
 -1        72 5.39561E+01
 -1        73 7.02317E+01
 -1        74 5.03662E+01
 -1        75 7.02317E+01
 -1        76 5.03662E+01
 -1        77 7.35308E+01
 -1        78 7.35308E+01
 -1        79 7.35308E+01
 -1        80 7.35308E+01
 -1        81 7.35308E+01
 -1        82 7.35308E+01
 -1        83 7.35308E+01
 -1        84 7.35308E+01
 -1        85 6.39069E+01
 -1        86 6.39069E+01
 -1        87 6.39069E+01
 -1        88 6.39069E+01
 -1        89 6.02927E+01
 -1        90 6.02927E+01
 -1        91 5.93184E+01
 -1        92 5.93184E+01
 -1        93 5.69771E+01
 -1        94 5.69771E+01
 -1        95 5.28774E+01
 -1        96 5.28774E+01
 -1        97 4.24781E+01
 -1        98 4.24781E+01
 -1        99 4.21699E+01
 -1       100 4.21699E+01
 -1       101 6.67256E+01
 -1       102 6.67256E+01
 -1       103 6.67256E+01
 -1       104 6.67256E+01
 -1       105 6.49093E+01
 -1       106 6.49093E+01
 -1       107 6.21334E+01
 -1       108 6.21334E+01
 -1       109 6.11335E+01
 -1       110 6.11335E+01
 -1       111 6.27510E+01
 -1       112 6.27510E+01
 -1       113 6.42335E+01
 -1       114 6.42335E+01
 -1       115 6.64569E+01
 -1       116 6.64569E+01
 -1       117 6.90681E+01
 -1       118 6.90681E+01
 -1       119 7.02317E+01
 -1       120 7.02317E+01
 -1       121 7.02317E+01
 -1       122 7.02317E+01
 -1       123 4.75269E+01
 -1       124 4.75269E+01
 -1       125 4.23901E+01
 -1       126 4.23901E+01
 -3
    1PSTEP                       105          27           3          
  100CL  127 4.70000E-01         126                     1   27           1
 -4  DISP        4    1
 -5  D1          1    2    1    0
 -5  D2          1    2    2    0
 -5  D3          1    2    3    0
 -5  ALL         1    2    0    0    1ALL
 -1         1 0.00000E+00 0.00000E+00 0.00000E+00
 -1         2 0.00000E+00 0.00000E+00 0.00000E+00
 -1         3 1.30679E-03 0.00000E+00-4.92366E-07
 -1         4 1.75799E-03 0.00000E+00-2.11825E-03
 -1         5 0.00000E+00 0.00000E+00 0.00000E+00
 -1         6 0.00000E+00 0.00000E+00 0.00000E+00
 -1         7 1.30680E-03 0.00000E+00-4.95333E-07
 -1         8 1.75800E-03 0.00000E+00-2.11826E-03
 -1         9 4.87793E-03 0.00000E+00-7.40815E-05
 -1        10 5.00796E-03 0.00000E+00-4.00279E-03
 -1        11 4.87792E-03 0.00000E+00-7.40969E-05
 -1        12 5.00797E-03 0.00000E+00-4.00283E-03
 -1        13 9.91614E-03 0.00000E+00-2.71156E-04
 -1        14 9.86379E-03 0.00000E+00-5.55803E-03
 -1        15 9.91615E-03 0.00000E+00-2.71173E-04
 -1        16 9.86381E-03 0.00000E+00-5.55807E-03
 -1        17 1.60964E-02 0.00000E+00-5.93207E-04
 -1        18 1.58521E-02 0.00000E+00-6.86139E-03
 -1        19 1.60965E-02 0.00000E+00-5.93213E-04
 -1        20 1.58521E-02 0.00000E+00-6.86141E-03
 -1        21 2.30547E-02 0.00000E+00-1.01754E-03
 -1        22 2.26593E-02 0.00000E+00-7.92664E-03
 -1        23 2.30547E-02 0.00000E+00-1.01754E-03
 -1        24 2.26593E-02 0.00000E+00-7.92664E-03
 -1        25 3.04658E-02 0.00000E+00-1.51027E-03
 -1        26 2.99631E-02 0.00000E+00-8.75814E-03
 -1        27 3.04658E-02 0.00000E+00-1.51027E-03
 -1        28 2.99631E-02 0.00000E+00-8.75813E-03
 -1        29 3.80340E-02 0.00000E+00-2.03131E-03
 -1        30 3.74714E-02 0.00000E+00-9.36476E-03
 -1        31 3.80340E-02 0.00000E+00-2.03130E-03
 -1        32 3.74714E-02 0.00000E+00-9.36476E-03
 -1        33 4.55270E-02 0.00000E+00-2.54739E-03
 -1        34 4.49467E-02 0.00000E+00-9.76978E-03
 -1        35 4.55271E-02 0.00000E+00-2.54738E-03
 -1        36 4.49468E-02 0.00000E+00-9.76978E-03
 -1        37 5.27811E-02 0.00000E+00-3.03493E-03
 -1        38 5.22138E-02 0.00000E+00-1.00038E-02
 -1        39 5.27811E-02 0.00000E+00-3.03493E-03
 -1        40 5.22138E-02 0.00000E+00-1.00038E-02
 -1        41 5.96864E-02 0.00000E+00-3.47832E-03
 -1        42 5.91519E-02 0.00000E+00-1.00973E-02
 -1        43 5.96864E-02 0.00000E+00-3.47832E-03
 -1        44 5.91519E-02 0.00000E+00-1.00972E-02
 -1        45 6.61700E-02 0.00000E+00-3.86866E-03
 -1        46 6.56803E-02 0.00000E+00-1.00782E-02
 -1        47 6.61700E-02 0.00000E+00-3.86868E-03
 -1        48 6.56803E-02 0.00000E+00-1.00782E-02
 -1        49 7.21864E-02 0.00000E+00-4.20229E-03
 -1        50 7.17486E-02 0.00000E+00-9.97712E-03
 -1        51 7.21864E-02 0.00000E+00-4.20231E-03
 -1        52 7.17486E-02 0.00000E+00-9.97715E-03
 -1        53 7.77282E-02 0.00000E+00-4.48135E-03
 -1        54 7.73450E-02 0.00000E+00-9.83369E-03
 -1        55 7.77282E-02 0.00000E+00-4.48136E-03
 -1        56 7.73450E-02 0.00000E+00-9.83368E-03
 -1        57 8.28302E-02 0.00000E+00-4.71237E-03
 -1        58 8.24994E-02 0.00000E+00-9.69245E-03
 -1        59 8.28302E-02 0.00000E+00-4.71240E-03
 -1        60 8.24994E-02 0.00000E+00-9.69244E-03
 -1        61 8.75743E-02 0.00000E+00-4.90638E-03
 -1        62 8.72908E-02 0.00000E+00-9.59061E-03
 -1        63 8.75743E-02 0.00000E+00-4.90639E-03
 -1        64 8.72908E-02 0.00000E+00-9.59059E-03
 -1        65 9.20648E-02 0.00000E+00-5.07640E-03
 -1        66 9.18183E-02 0.00000E+00-9.54721E-03
 -1        67 9.20648E-02 0.00000E+00-5.07641E-03
 -1        68 9.18183E-02 0.00000E+00-9.54722E-03
 -1        69 9.63930E-02 0.00000E+00-5.23324E-03
 -1        70 9.61743E-02 0.00000E+00-9.56158E-03
 -1        71 9.63930E-02 0.00000E+00-5.23325E-03
 -1        72 9.61743E-02 0.00000E+00-9.56156E-03
 -1        73 1.00623E-01 0.00000E+00-5.38474E-03
 -1        74 1.00422E-01 0.00000E+00-9.62552E-03
 -1        75 1.00623E-01 0.00000E+00-5.38473E-03
 -1        76 1.00422E-01 0.00000E+00-9.62552E-03
 -1        77 1.04799E-01 0.00000E+00-5.53681E-03
 -1        78 1.04625E-01 0.00000E+00-9.73970E-03
 -1        79 1.04799E-01 0.00000E+00-5.53679E-03
 -1        80 1.04625E-01 0.00000E+00-9.73969E-03
 -1        81 1.08981E-01 0.00000E+00-5.70310E-03
 -1        82 1.08765E-01 0.00000E+00-9.86926E-03
 -1        83 1.08981E-01 0.00000E+00-5.70309E-03
 -1        84 1.08765E-01 0.00000E+00-9.86926E-03
 -1        85 0.00000E+00 0.00000E+00 0.00000E+00
 -1        86 1.91919E-03 0.00000E+00 2.07790E-03
 -1        87 0.00000E+00 0.00000E+00 0.00000E+00
 -1        88 1.91916E-03 0.00000E+00 2.07788E-03
 -1        89 5.39046E-03 0.00000E+00 3.78794E-03
 -1        90 5.39041E-03 0.00000E+00 3.78792E-03
 -1        91 1.04846E-02 0.00000E+00 4.94668E-03
 -1        92 1.04846E-02 0.00000E+00 4.94667E-03
 -1        93 1.66967E-02 0.00000E+00 5.61998E-03
 -1        94 1.66967E-02 0.00000E+00 5.61997E-03
 -1        95 2.36698E-02 0.00000E+00 5.85415E-03
 -1        96 2.36697E-02 0.00000E+00 5.85415E-03
 -1        97 3.10678E-02 0.00000E+00 5.71904E-03
 -1        98 3.10678E-02 0.00000E+00 5.71905E-03
 -1        99 3.85984E-02 0.00000E+00 5.29887E-03
 -1       100 3.85984E-02 0.00000E+00 5.29890E-03
 -1       101 4.60361E-02 0.00000E+00 4.68293E-03
 -1       102 4.60360E-02 0.00000E+00 4.68295E-03
 -1       103 5.32260E-02 0.00000E+00 3.94982E-03
 -1       104 5.32259E-02 0.00000E+00 3.94981E-03
 -1       105 6.00648E-02 0.00000E+00 3.16084E-03
 -1       106 6.00648E-02 0.00000E+00 3.16085E-03
 -1       107 6.64849E-02 0.00000E+00 2.36216E-03
 -1       108 6.64848E-02 0.00000E+00 2.36218E-03
 -1       109 7.24459E-02 0.00000E+00 1.59293E-03
 -1       110 7.24459E-02 0.00000E+00 1.59294E-03
 -1       111 7.79465E-02 0.00000E+00 8.89149E-04
 -1       112 7.79465E-02 0.00000E+00 8.89139E-04
 -1       113 8.30237E-02 0.00000E+00 2.81310E-04
 -1       114 8.30236E-02 0.00000E+00 2.81311E-04
 -1       115 8.77560E-02 0.00000E+00-2.13744E-04
 -1       116 8.77560E-02 0.00000E+00-2.13749E-04
 -1       117 9.22429E-02 0.00000E+00-6.00375E-04
 -1       118 9.22429E-02 0.00000E+00-6.00371E-04
 -1       119 9.65716E-02 0.00000E+00-9.00601E-04
 -1       120 9.65716E-02 0.00000E+00-9.00600E-04
 -1       121 1.00800E-01 0.00000E+00-1.13751E-03
 -1       122 1.00800E-01 0.00000E+00-1.13748E-03
 -1       123 1.04990E-01 0.00000E+00-1.33311E-03
 -1       124 1.04989E-01 0.00000E+00-1.33310E-03
 -1       125 1.09119E-01 0.00000E+00-1.50315E-03
 -1       126 1.09119E-01 0.00000E+00-1.50312E-03
 -3
    1PSTEP                       106          27           3          
  100CL  127 4.70000E-01         126                     1   27           1
 -4  STRESS      6    1
 -5  SXX         1    4    1    1
 -5  SYY         1    4    2    2
 -5  SZZ         1    4    3    3
 -5  SXY         1    4    1    2
 -5  SYZ         1    4    2    3
 -5  SZX         1    4    3    1
 -1         1-9.53760E+03-9.84146E+03-2.14170E+04-9.36315E-05 7.10360E-05 4.70139E+03
 -1         2 2.17892E+02 7.66106E+01-1.85805E+02-7.28890E-06 4.08891E-05 4.01106E+03
 -1         3 6.80642E+01-1.87220E+01-2.04653E+02 5.93863E-03-1.44661E-03 1.03649E+03
 -1         4-3.41439E+03-6.63337E+03-1.76064E+04 8.07821E-03-7.56997E-03 7.98247E+02
 -1         5-9.53767E+03-9.84154E+03-2.14171E+04-9.36322E-05 7.10365E-05 4.70143E+03
 -1         6 2.17885E+02 7.65984E+01-1.85831E+02-7.28999E-06 4.08891E-05 4.01110E+03
 -1         7 6.82634E+01-1.86531E+01-2.04636E+02 5.93863E-03-1.44662E-03 1.03648E+03
 -1         8-3.41443E+03-6.63344E+03-1.76066E+04 8.07821E-03-7.56997E-03 7.98218E+02
 -1         9 1.22644E+02 7.10110E+01 8.87441E+00-6.50505E-03-8.04852E-03 1.25063E+03
 -1        10-3.99235E+03-5.85274E+03-1.47509E+04 4.59180E-03-1.89048E-02-6.74186E+01
 -1        11 1.22961E+02 7.11308E+01 8.95376E+00-6.50506E-03-8.04852E-03 1.25059E+03
 -1        12-3.99216E+03-5.85269E+03-1.47509E+04 4.59182E-03-1.89048E-02-6.74854E+01
 -1        13 2.03275E+02 1.14348E+02 1.31899E+02 3.73737E-03-8.72231E-03 1.09519E+03
 -1        14-2.64747E+03-4.16003E+03-1.08170E+04 1.13310E-02-2.22565E-02-3.70797E+01
 -1        15 2.03618E+02 1.14513E+02 1.32104E+02 3.73737E-03-8.72232E-03 1.09517E+03
 -1        16-2.64722E+03-4.15988E+03-1.08168E+04 1.13310E-02-2.22565E-02-3.71186E+01
 -1        17 2.34866E+02 1.38011E+02 2.05872E+02 1.07252E-02-3.39024E-03 1.01502E+03
 -1        18-1.82117E+03-2.85338E+03-7.49738E+03 2.05319E-02-8.06089E-03 2.94781E+01
 -1        19 2.35270E+02 1.38208E+02 2.06122E+02 1.07252E-02-3.39024E-03 1.01498E+03
 -1        20-1.82084E+03-2.85317E+03-7.49702E+03 2.05319E-02-8.06091E-03 2.94489E+01
 -1        21 2.44827E+02 1.48795E+02 2.48281E+02-4.69156E-03-4.08199E-04 9.14623E+02
 -1        22-1.01808E+03-1.66310E+03-4.45512E+03 1.02798E-02 2.67145E-03 2.06067E+02
 -1        23 2.45272E+02 1.48998E+02 2.48513E+02-4.69157E-03-4.08197E-04 9.14593E+02
 -1        24-1.01773E+03-1.66293E+03-4.45490E+03 1.02798E-02 2.67145E-03 2.06055E+02
 -1        25 2.20947E+02 1.44544E+02 2.64673E+02 1.48798E-03 1.84697E-03 7.85256E+02
 -1        26-3.50155E+02-6.49321E+02-1.79791E+03 1.25580E-02 1.84208E-03 3.81940E+02
 -1        27 2.21306E+02 1.44720E+02 2.64901E+02 1.48798E-03 1.84697E-03 7.85270E+02
 -1        28-3.49931E+02-6.49235E+02-1.79785E+03 1.25580E-02 1.84208E-03 3.81947E+02
 -1        29 1.75533E+02 1.31361E+02 2.66767E+02 7.33459E-03 7.70341E-03 6.26507E+02
 -1        30 1.80033E+02 1.67325E+02 3.84710E+02 1.62909E-02-1.02607E-03 5.08598E+02
 -1        31 1.75880E+02 1.31519E+02 2.66944E+02 7.33460E-03 7.70341E-03 6.26486E+02
 -1        32 1.80254E+02 1.67423E+02 3.84817E+02 1.62909E-02-1.02607E-03 5.08591E+02
 -1        33 1.30836E+02 1.15468E+02 2.55914E+02 1.43706E-02 2.98780E-03 4.67501E+02
 -1        34 5.75869E+02 7.80001E+02 2.04420E+03 3.01421E-02 8.51205E-04 5.74078E+02
 -1        35 1.31282E+02 1.15639E+02 2.56037E+02 1.43706E-02 2.98780E-03 4.67437E+02
 -1        36 5.76239E+02 7.80185E+02 2.04444E+03 3.01422E-02 8.51201E-04 5.74054E+02
 -1        37 8.92472E+01 9.87704E+01 2.38391E+02 2.88206E-04-1.20733E-03 3.29988E+02
 -1        38 8.44034E+02 1.20674E+03 3.21770E+03 1.54765E-02 8.42195E-03 5.88372E+02
 -1        39 8.96205E+01 9.89208E+01 2.38520E+02 2.88207E-04-1.20733E-03 3.29906E+02
 -1        40 8.44302E+02 1.20685E+03 3.21781E+03 1.54765E-02 8.42194E-03 5.88327E+02
 -1        41 5.32303E+01 8.52114E+01 2.26282E+02-1.54019E-02 3.84002E-04 2.13843E+02
 -1        42 1.00565E+03 1.48182E+03 3.98992E+03-1.15542E-04 3.51355E-03 5.60273E+02
 -1        43 5.35876E+01 8.53473E+01 2.26377E+02-1.54019E-02 3.84004E-04 2.13830E+02
 -1        44 1.00584E+03 1.48183E+03 3.98976E+03-1.15543E-04 3.51354E-03 5.60280E+02
 -1        45 2.26687E+01 7.68756E+01 2.27393E+02 4.10621E-03-8.30083E-03 1.04305E+02
 -1        46 1.07834E+03 1.62983E+03 4.42121E+03 1.91975E-02-1.91220E-02 4.89808E+02
 -1        47 2.30455E+01 7.70154E+01 2.27484E+02 4.10622E-03-8.30083E-03 1.04281E+02
 -1        48 1.07862E+03 1.62991E+03 4.42121E+03 1.91975E-02-1.91220E-02 4.89773E+02
 -1        49 1.59166E-01 7.51604E+01 2.43900E+02 1.12858E-02-1.15771E-02-5.35950E+00
 -1        50 1.06984E+03 1.65300E+03 4.50850E+03 1.52099E-02-1.24597E-02 3.81439E+02
 -1        51 4.78964E-01 7.52984E+01 2.44041E+02 1.12859E-02-1.15772E-02-5.41011E+00
 -1        52 1.07004E+03 1.65315E+03 4.50881E+03 1.52099E-02-1.24597E-02 3.81438E+02
 -1        53-1.77694E+01 7.77362E+01 2.71459E+02 9.25333E-03-9.83226E-03-1.07889E+02
 -1        54 9.77869E+02 1.54381E+03 4.22810E+03 1.81254E-02 6.31707E-03 2.47673E+02
 -1        55-1.74848E+01 7.78563E+01 2.71575E+02 9.25334E-03-9.83226E-03-1.07921E+02
 -1        56 9.78090E+02 1.54394E+03 4.22829E+03 1.81254E-02 6.31708E-03 2.47731E+02
 -1        57-3.04286E+01 8.22485E+01 3.00798E+02-7.37097E-03-1.09304E-02-1.81653E+02
 -1        58 8.16395E+02 1.32005E+03 3.62809E+03 2.42086E-03 2.38888E-03 1.18195E+02
 -1        59-3.00562E+01 8.24195E+01 3.00995E+02-7.37098E-03-1.09304E-02-1.81666E+02
 -1        60 8.16592E+02 1.32014E+03 3.62818E+03 2.42087E-03 2.38888E-03 1.18246E+02
 -1        61-2.42172E+01 8.94505E+01 3.20227E+02 5.80428E-03-5.17160E-03-2.04317E+02
 -1        62 6.38687E+02 1.04109E+03 2.85948E+03 1.02237E-02 9.73120E-03 2.68933E+01
 -1        63-2.39292E+01 8.95886E+01 3.20400E+02 5.80429E-03-5.17160E-03-2.04224E+02
 -1        64 6.38749E+02 1.04110E+03 2.85943E+03 1.02237E-02 9.73120E-03 2.69990E+01
 -1        65-1.58699E+01 9.02866E+01 3.15935E+02 1.29586E-02-3.97490E-03-1.83520E+02
 -1        66 4.64820E+02 7.63078E+02 2.09397E+03 8.95237E-03-3.16158E-03-1.74679E+01
 -1        67-1.57988E+01 9.03177E+01 3.15968E+02 1.29587E-02-3.97490E-03-1.83554E+02
 -1        68 4.64739E+02 7.63049E+02 2.09395E+03 8.95237E-03-3.16158E-03-1.74876E+01
 -1        69-7.24023E+00 8.53479E+01 2.91560E+02 3.66210E-05-5.20913E-03-1.45211E+02
 -1        70 3.26214E+02 5.29910E+02 1.44763E+03 1.25820E-03 1.21037E-02-3.37149E+01
 -1        71-6.96773E+00 8.54879E+01 2.91755E+02 3.66227E-05-5.20913E-03-1.45206E+02
 -1        72 3.26231E+02 5.29919E+02 1.44765E+03 1.25820E-03 1.21037E-02-3.36521E+01
 -1        73 1.97458E+00 7.60989E+01 2.51865E+02 4.13317E-03 6.14918E-03-1.16257E+02
 -1        74 1.75595E+02 3.14624E+02 8.76064E+02-4.80660E-03 8.21447E-04-1.81831E+01
 -1        75 2.11453E+00 7.61984E+01 2.52057E+02 4.13317E-03 6.14919E-03-1.16292E+02
 -1        76 1.75379E+02 3.14514E+02 8.75913E+02-4.80660E-03 8.21446E-04-1.82077E+01
 -1        77 2.76735E+00 4.80080E+01 1.57250E+02 3.30265E-03 8.98025E-03-6.94852E+01
 -1        78 2.56909E+02 2.54790E+02 5.93700E+02 2.86211E-03 4.29625E-03-8.23219E+01
 -1        79 2.89261E+00 4.80621E+01 1.57305E+02 3.30265E-03 8.98025E-03-6.94896E+01
 -1        80 2.56915E+02 2.54797E+02 5.93717E+02 2.86211E-03 4.29625E-03-8.23238E+01
 -1        81 2.52679E+01 3.42494E+01 8.93700E+01 4.60063E-03 6.20441E-03-8.12768E-01
 -1        82-2.65095E+02 2.74911E+00 2.74965E+02 3.75779E-03 1.75237E-03-5.66909E+01
 -1        83 2.52526E+01 3.42320E+01 8.93275E+01 4.60062E-03 6.20441E-03-8.54303E-01
 -1        84-2.65130E+02 2.72288E+00 2.74913E+02 3.75779E-03 1.75237E-03-5.67129E+01
 -1        85 9.95487E+03 9.56012E+03 2.38291E+04-1.62934E-04-1.11659E-04 6.70160E+03
 -1        86 3.25676E+03 6.48165E+03 1.95036E+04-1.59397E-02-1.42218E-02 2.38605E+03
 -1        87 9.95474E+03 9.56000E+03 2.38288E+04-1.62927E-04-1.11658E-04 6.70148E+03
 -1        88 3.25712E+03 6.48177E+03 1.95036E+04-1.59397E-02-1.42218E-02 2.38603E+03
 -1        89 3.84760E+03 5.78294E+03 1.62793E+04-2.84729E-02-1.24879E-02 1.87026E+03
 -1        90 3.84809E+03 5.78317E+03 1.62796E+04-2.84730E-02-1.24879E-02 1.87027E+03
 -1        91 2.85520E+03 4.32296E+03 1.20472E+04-1.71121E-02-3.87176E-03 1.89937E+03
 -1        92 2.85567E+03 4.32318E+03 1.20475E+04-1.71121E-02-3.87176E-03 1.89937E+03
 -1        93 2.13007E+03 3.10232E+03 8.47241E+03-1.62440E-02-5.06106E-03 1.61815E+03
 -1        94 2.13061E+03 3.10255E+03 8.47266E+03-1.62441E-02-5.06106E-03 1.61809E+03
 -1        95 1.38196E+03 1.95474E+03 5.24686E+03-3.17303E-02-1.11324E-03 1.26717E+03
 -1        96 1.38257E+03 1.95502E+03 5.24722E+03-3.17304E-02-1.11324E-03 1.26715E+03
 -1        97 6.89888E+02 9.39539E+02 2.47636E+03-1.64290E-02 6.59479E-03 8.70957E+02
 -1        98 6.90364E+02 9.39786E+02 2.47671E+03-1.64290E-02 6.59480E-03 8.70977E+02
 -1        99 9.06271E+01 9.57222E+01 2.35384E+02-1.36301E-02 1.49860E-02 4.91335E+02
 -1       100 9.10736E+01 9.59208E+01 2.35600E+02-1.36301E-02 1.49860E-02 4.91273E+02
 -1       101-3.71766E+02-5.48834E+02-1.44859E+03-1.71366E-02 7.21026E-03 1.79852E+02
 -1       102-3.71190E+02-5.48622E+02-1.44846E+03-1.71366E-02 7.21027E-03 1.79756E+02
 -1       103-7.05556E+02-1.01058E+03-2.63989E+03-2.63062E-02-2.36400E-05-4.52073E+01
 -1       104-7.05033E+02-1.01036E+03-2.63967E+03-2.63063E-02-2.36240E-05-4.52954E+01
 -1       105-9.29302E+02-1.31762E+03-3.42439E+03-3.70937E-02 5.88048E-03-1.96967E+02
 -1       106-9.28784E+02-1.31737E+03-3.42407E+03-3.70938E-02 5.88049E-03-1.96986E+02
 -1       107-1.05370E+03-1.48520E+03-3.84816E+03-1.70699E-02 9.93633E-03-2.98535E+02
 -1       108-1.05320E+03-1.48497E+03-3.84791E+03-1.70700E-02 9.93634E-03-2.98592E+02
 -1       109-1.07712E+03-1.51039E+03-3.90682E+03-1.43971E-02 6.01471E-03-3.61502E+02
 -1       110-1.07662E+03-1.51021E+03-3.90669E+03-1.43972E-02 6.01472E-03-3.61612E+02
 -1       111-1.01136E+03-1.39656E+03-3.60037E+03-1.12196E-02-4.85498E-03-3.88833E+02
 -1       112-1.01097E+03-1.39640E+03-3.60024E+03-1.12196E-02-4.85497E-03-3.88928E+02
 -1       113-8.70728E+02-1.16573E+03-2.98496E+03-3.17959E-02 3.64711E-04-3.77874E+02
 -1       114-8.70198E+02-1.16549E+03-2.98470E+03-3.17959E-02 3.64728E-04-3.77959E+02
 -1       115-6.74933E+02-8.68203E+02-2.20268E+03-1.29247E-02-2.62876E-03-3.26260E+02
 -1       116-6.74497E+02-8.68010E+02-2.20248E+03-1.29247E-02-2.62876E-03-3.26186E+02
 -1       117-4.78125E+02-5.80152E+02-1.44864E+03 1.87987E-03 1.84264E-03-2.53027E+02
 -1       118-4.77880E+02-5.80037E+02-1.44850E+03 1.87987E-03 1.84264E-03-2.53093E+02
 -1       119-3.18485E+02-3.48217E+02-8.39759E+02-2.16692E-02 5.48256E-04-1.88928E+02
 -1       120-3.17974E+02-3.47959E+02-8.39410E+02-2.16693E-02 5.48268E-04-1.89009E+02
 -1       121-1.54433E+02-1.59638E+02-3.77176E+02-1.12711E-02 1.60967E-02-1.27438E+02
 -1       122-1.54070E+02-1.59466E+02-3.76967E+02-1.12711E-02 1.60968E-02-1.27467E+02
 -1       123-2.11861E+02-1.06124E+02-1.41535E+02-9.02070E-03 5.20265E-03-1.33802E+02
 -1       124-2.11586E+02-1.06003E+02-1.41408E+02-9.02070E-03 5.20265E-03-1.33741E+02
 -1       125 3.83510E+02 1.81598E+02 2.22775E+02 3.63559E-03 1.77514E-02-2.25274E+02
 -1       126 3.83673E+02 1.81737E+02 2.23076E+02 3.63559E-03 1.77514E-02-2.25261E+02
 -3
    1PSTEP                       107          27           3          
  100CL  127 4.70000E-01         126                     1   27           1
 -4  TOSTRAIN    6    1
 -5  EXX         1    4    1    1
 -5  EYY         1    4    2    2
 -5  EZZ         1    4    3    3
 -5  EXY         1    4    1    2
 -5  EYZ         1    4    2    3
 -5  EZX         1    4    3    1
 -1         1-1.56444E-04-4.45773E-16-4.10048E-02-2.30487E-10 2.14090E-13 1.75796E-02
 -1         2-1.56369E-04 6.02968E-17 1.75284E-04-2.94201E-11 3.88166E-13 1.30676E-02
 -1         3-8.06687E-04-6.48811E-16 5.72793E-04 1.93660E-08-3.92397E-09 3.38493E-03
 -1         4 9.82683E-03 2.20886E-15-3.79925E-02 2.75944E-08-2.47018E-08 4.93574E-03
 -1         5-1.56446E-04-4.45773E-16-4.10051E-02-2.30488E-10 2.14090E-13 1.75797E-02
 -1         6-1.56368E-04 6.02968E-17 1.75232E-04-2.94216E-11 3.88166E-13 1.30677E-02
 -1         7-8.06228E-04-6.48811E-16 5.72624E-04 1.93660E-08-3.92398E-09 3.38493E-03
 -1         8 9.82693E-03 2.20886E-15-3.79928E-02 2.75944E-08-2.47018E-08 4.93567E-03
 -1         9-8.47791E-04 3.66813E-16 1.02563E-03-1.89620E-08-2.75682E-08 4.03370E-03
 -1        10 5.60312E-03 7.83830E-15-3.04737E-02 2.00608E-08-6.26193E-08 2.69850E-03
 -1        11-8.47138E-04 3.66813E-16 1.02550E-03-1.89620E-08-2.75682E-08 4.03362E-03
 -1        12 5.60359E-03 7.83830E-15-3.04739E-02 2.00608E-08-6.26193E-08 2.69832E-03
 -1        13-7.05683E-04 3.17182E-16 1.13333E-03 1.51549E-08-2.68249E-08 3.49326E-03
 -1        14 4.49550E-03 1.27076E-14-2.22778E-02 4.47470E-08-7.01510E-08 2.80630E-03
 -1        15-7.05092E-04 3.17182E-16 1.13345E-03 1.51549E-08-2.68249E-08 3.49326E-03
 -1        16 4.49585E-03 1.27076E-14-2.22775E-02 4.47470E-08-7.01510E-08 2.80617E-03
 -1        17-6.38353E-04 6.53896E-16 1.20206E-03 3.59314E-08-6.55392E-09 3.19678E-03
 -1        18 2.95913E-03 9.01425E-15-1.52065E-02 6.97283E-08-1.80088E-08 2.46776E-03
 -1        19-6.37635E-04 6.53896E-16 1.20219E-03 3.59314E-08-6.55393E-09 3.19670E-03
 -1        20 2.95953E-03 9.01425E-15-1.52060E-02 6.97283E-08-1.80088E-08 2.46765E-03
 -1        21-5.64887E-04-1.70337E-15 1.19634E-03-1.49596E-08-3.40476E-09 2.84844E-03
 -1        22 1.66138E-03 1.17612E-15-8.82566E-03 3.18535E-08 1.33675E-08 2.21642E-03
 -1        23-5.64087E-04-1.70337E-15 1.19642E-03-1.49596E-08-3.40475E-09 2.84843E-03
 -1        24 1.66194E-03 1.17612E-15-8.82548E-03 3.18535E-08 1.33675E-08 2.21643E-03
 -1        25-5.08348E-04-8.67267E-16 1.13150E-03 3.86540E-09 6.61774E-09 2.41693E-03
 -1        26 5.01487E-04 2.94151E-15-3.30547E-03 3.94889E-08 1.18805E-08 1.87942E-03
 -1        27-5.07775E-04-8.67267E-16 1.13169E-03 3.86540E-09 6.61774E-09 2.41703E-03
 -1        28 5.01915E-04 2.94151E-15-3.30553E-03 3.94889E-08 1.18805E-08 1.87951E-03
 -1        29-4.55868E-04 1.01810E-15 1.02462E-03 1.98040E-08 2.82267E-08 1.89989E-03
 -1        30-4.33213E-04 4.74145E-15 1.16180E-03 5.28501E-08 4.46846E-09 1.48236E-03
 -1        31-4.55244E-04 1.01810E-15 1.02468E-03 1.98040E-08 2.82267E-08 1.89990E-03
 -1        32-4.32817E-04 4.74145E-15 1.16183E-03 5.28502E-08 4.46847E-09 1.48239E-03
 -1        33-3.91113E-04 1.86167E-15 8.89665E-04 4.47933E-08 1.63291E-08 1.39396E-03
 -1        34-1.10806E-03 1.75454E-14 4.49882E-03 9.64509E-08 1.67874E-08 1.09397E-03
 -1        35-3.90182E-04 1.86167E-15 8.89474E-04 4.47933E-08 1.63291E-08 1.39391E-03
 -1        36-1.10744E-03 1.75454E-14 4.49900E-03 9.64510E-08 1.67874E-08 1.09395E-03
 -1        37-3.37877E-04-2.55619E-15 7.61320E-04 1.51394E-09-3.76487E-09 9.61355E-04
 -1        38-1.57205E-03 4.46172E-15 6.82311E-03 4.59077E-08 3.38157E-08 7.59258E-04
 -1        39-3.37094E-04-2.55619E-15 7.61190E-04 1.51394E-09-3.76487E-09 9.61209E-04
 -1        40-1.57151E-03 4.46172E-15 6.82308E-03 4.59078E-08 3.38156E-08 7.59188E-04
 -1        41-3.02503E-04 2.52370E-15 6.64567E-04-4.97407E-08-5.37373E-09 5.95309E-04
 -1        42-1.87523E-03-2.53516E-15 8.32814E-03-1.86364E-09 1.11930E-08 4.72560E-04
 -1        43-3.01782E-04 2.52370E-15 6.64437E-04-4.97407E-08-5.37373E-09 5.95379E-04
 -1        44-1.87466E-03-2.53516E-15 8.32762E-03-1.86364E-09 1.11930E-08 4.72731E-04
 -1        45-2.79810E-04-9.86883E-16 6.04068E-04 1.66580E-08-2.51079E-08 2.45833E-04
 -1        46-2.04017E-03 1.25862E-14 9.14052E-03 6.95871E-08-5.32519E-08 1.96900E-04
 -1        47-2.79037E-04-9.86883E-16 6.03902E-04 1.66581E-08-2.51079E-08 2.45871E-04
 -1        48-2.03954E-03 1.25862E-14 9.14025E-03 6.95871E-08-5.32519E-08 1.96900E-04
 -1        49-2.60142E-04 3.78024E-15 5.76695E-04 4.08197E-08-3.31427E-08-1.07827E-04
 -1        50-2.05405E-03 7.46300E-15 9.25580E-03 5.37018E-08-3.40788E-08-7.67025E-05
 -1        51-2.59526E-04 3.78024E-15 5.76678E-04 4.08197E-08-3.31427E-08-1.07920E-04
 -1        52-2.05389E-03 7.46300E-15 9.25628E-03 5.37018E-08-3.40789E-08-7.67451E-05
 -1        53-2.52075E-04 2.05050E-15 5.81004E-04 3.33357E-08-2.85159E-08-4.41972E-04
 -1        54-1.91003E-03 5.60280E-15 8.63402E-03 5.63125E-08 2.64957E-08-3.33662E-04
 -1        55-2.51529E-04 2.05050E-15 5.80979E-04 3.33357E-08-2.85159E-08-4.42015E-04
 -1        56-1.90976E-03 5.60280E-15 8.63428E-03 5.63126E-08 2.64957E-08-3.33469E-04
 -1        57-2.57875E-04 1.09242E-15 6.08573E-04-2.03123E-08-3.77049E-08-6.84167E-04
 -1        58-1.63663E-03-1.36547E-15 7.38237E-03 7.07108E-09 8.48218E-09-5.21851E-04
 -1        59-2.57215E-04 1.09242E-15 6.08655E-04-2.03123E-08-3.77049E-08-6.84152E-04
 -1        60-1.63630E-03-1.36547E-15 7.38242E-03 7.07109E-09 8.48218E-09-5.21652E-04
 -1        61-2.46952E-04-1.64965E-16 6.31192E-04 2.03525E-08-1.48934E-08-7.55451E-04
 -1        62-1.26886E-03 2.93227E-15 5.79671E-03 3.01308E-08 3.44024E-08-5.80145E-04
 -1        63-2.46524E-04-1.64965E-16 6.31365E-04 2.03525E-08-1.48934E-08-7.55119E-04
 -1        64-1.26874E-03 2.93227E-15 5.79662E-03 3.01308E-08 3.44024E-08-5.79781E-04
 -1        65-2.35741E-04 3.29507E-15 6.25347E-04 4.30958E-08-9.09831E-09-6.81760E-04
 -1        66-9.20745E-04 1.20717E-15 4.23660E-03 2.98626E-08-7.59134E-09-5.22217E-04
 -1        67-2.35595E-04 3.29507E-15 6.25337E-04 4.30958E-08-9.09832E-09-6.81858E-04
 -1        68-9.20904E-04 1.20717E-15 4.23663E-03 2.98626E-08-7.59135E-09-5.22297E-04
 -1        69-2.14750E-04-1.23614E-15 5.83943E-04 1.57480E-09-1.68384E-08-5.47720E-04
 -1        70-6.17547E-04 1.51312E-15 2.91847E-03 6.99662E-10 3.94071E-08-4.19253E-04
 -1        71-2.14324E-04-1.23614E-15 5.84124E-04 1.57480E-09-1.68384E-08-5.47683E-04
 -1        72-6.17558E-04 1.51312E-15 2.91852E-03 6.99683E-10 3.94071E-08-4.19052E-04
 -1        73-1.72339E-04 2.41928E-16 5.01951E-04 1.17076E-08 2.10327E-08-4.40422E-04
 -1        74-4.25866E-04-8.96218E-17 1.79105E-03-1.57899E-08 1.32412E-09-2.49476E-04
 -1        75-1.72188E-04 2.41928E-16 5.02231E-04 1.17076E-08 2.10327E-08-4.40546E-04
 -1        76-4.26196E-04-8.96218E-17 1.79090E-03-1.57899E-08 1.32412E-09-2.49573E-04
 -1        77-1.05684E-04 1.66231E-15 3.13639E-04 8.25921E-09 2.99719E-08-2.64484E-04
 -1        78 5.88223E-05 3.66830E-16 1.04635E-03 8.10231E-09 1.46714E-08-3.54391E-04
 -1        79-1.05452E-04 1.66231E-15 3.13641E-04 8.25922E-09 2.99719E-08-2.64478E-04
 -1        80 5.88204E-05 3.66830E-16 1.04639E-03 8.10230E-09 1.46714E-08-3.54400E-04
 -1        81-2.83474E-05 1.06104E-15 1.77229E-04 1.32108E-08 2.13375E-08-1.97034E-05
 -1        82-8.29003E-04 2.66521E-16 8.40711E-04 1.17106E-08 6.68669E-09-3.27329E-04
 -1        83-2.83192E-05 1.06104E-15 1.77126E-04 1.32108E-08 2.13375E-08-1.98291E-05
 -1        84-8.29021E-04 2.66521E-16 8.40616E-04 1.17106E-08 6.68669E-09-3.27395E-04
 -1        85-1.56295E-04-1.11835E-15 4.30008E-02-3.95972E-10 3.43338E-13 1.91916E-02
 -1        86-1.14402E-02 5.88761E-15 4.00445E-02-4.93389E-08-4.60580E-08 5.05076E-03
 -1        87-1.56290E-04-1.11835E-15 4.30002E-02-3.95962E-10 3.43339E-13 1.91913E-02
 -1        88-1.14394E-02 5.88761E-15 4.00443E-02-4.93389E-08-4.60579E-08 5.05074E-03
 -1        89-7.29870E-03 1.74579E-14 3.28298E-02-8.84640E-08-4.57706E-08 2.65986E-03
 -1        90-7.29786E-03 1.74579E-14 3.28300E-02-8.84641E-08-4.57707E-08 2.65994E-03
 -1        91-5.90686E-03 4.52240E-15 2.49062E-02-5.37933E-08-1.77934E-08 2.75395E-03
 -1        92-5.90603E-03 4.52240E-15 2.49064E-02-5.37934E-08-1.77934E-08 2.75400E-03
 -1        93-4.23583E-03 3.04179E-15 1.78227E-02-5.01983E-08-2.23861E-08 2.43851E-03
 -1        94-4.23480E-03 3.04179E-15 1.78227E-02-5.01983E-08-2.23861E-08 2.43846E-03
 -1        95-2.79115E-03 1.77925E-14 1.13237E-02-1.01472E-07-1.75359E-08 2.18662E-03
 -1        96-2.79012E-03 1.77925E-14 1.13239E-02-1.01472E-07-1.75359E-08 2.18669E-03
 -1        97-1.51818E-03 4.83069E-15 5.60827E-03-5.59687E-08 1.33555E-08 1.85255E-03
 -1        98-1.51747E-03 4.83069E-15 5.60863E-03-5.59687E-08 1.33555E-08 1.85266E-03
 -1        99-4.78522E-04 6.75176E-15 8.96967E-04-5.10982E-08 4.16322E-08 1.45399E-03
 -1       100-4.77671E-04 6.75176E-15 8.96978E-04-5.10983E-08 4.16322E-08 1.45390E-03
 -1       101 3.25838E-04 3.44417E-15-2.69873E-03-5.85501E-08 1.51827E-08 1.06550E-03
 -1       102 3.27079E-04 3.44417E-15-2.69905E-03-5.85502E-08 1.51827E-08 1.06540E-03
 -1       103 8.96290E-04 1.16312E-14-5.26147E-03-8.46957E-08-1.21196E-08 7.35558E-04
 -1       104 8.97325E-04 1.16312E-14-5.26155E-03-8.46958E-08-1.21195E-08 7.35417E-04
 -1       105 1.27023E-03 2.70780E-14-6.95666E-03-1.22167E-07 2.99204E-09 4.54987E-04
 -1       106 1.27110E-03 2.70780E-14-6.95645E-03-1.22167E-07 2.99202E-09 4.55013E-04
 -1       107 1.48055E-03 4.78298E-15-7.88698E-03-5.91172E-08 2.53664E-08 1.84176E-04
 -1       108 1.48146E-03 4.78298E-15-7.88692E-03-5.91173E-08 2.53664E-08 1.84095E-04
 -1       109 1.53376E-03 1.51641E-15-8.04838E-03-4.87526E-08 1.40773E-08-8.77758E-05
 -1       110 1.53484E-03 1.51641E-15-8.04865E-03-4.87527E-08 1.40773E-08-8.79838E-05
 -1       111 1.40588E-03 6.78037E-16-7.43153E-03-3.45802E-08-1.98586E-08-3.42672E-04
 -1       112 1.40670E-03 6.78037E-16-7.43168E-03-3.45803E-08-1.98586E-08-3.42885E-04
 -1       113 1.12088E-03 1.74378E-14-6.15399E-03-1.03041E-07-9.27192E-09-5.28456E-04
 -1       114 1.12187E-03 1.74378E-14-6.15395E-03-1.03041E-07-9.27192E-09-5.28643E-04
 -1       115 7.74954E-04 1.41234E-15-4.52687E-03-4.10560E-08-1.24809E-08-5.83907E-04
 -1       116 7.75692E-04 1.41234E-15-4.52678E-03-4.10560E-08-1.24809E-08-5.83595E-04
 -1       117 4.49263E-04-1.75222E-15-2.95867E-03 5.57317E-09 6.52346E-09-5.31756E-04
 -1       118 4.49714E-04-1.75222E-15-2.95862E-03 5.57318E-09 6.52346E-09-5.31937E-04
 -1       119 1.88046E-04 6.60592E-15-1.69534E-03-7.03420E-08-4.35821E-09-4.60446E-04
 -1       120 1.88909E-04 6.60592E-15-1.69509E-03-7.03420E-08-4.35819E-09-4.60660E-04
 -1       121 8.11887E-05 6.21417E-15-7.72645E-04-4.09130E-08 4.90652E-08-3.47688E-04
 -1       122 8.18202E-05 6.21417E-15-7.72533E-04-4.09131E-08 4.90652E-08-3.47737E-04
 -1       123-2.70190E-04 1.09171E-15-1.89588E-04-3.06308E-08 1.43949E-08-4.48153E-04
 -1       124-2.69724E-04 1.09171E-15-1.89532E-04-3.06308E-08 1.43949E-08-4.47916E-04
 -1       125 7.72308E-04 5.55665E-15 1.50486E-05 7.00597E-09 5.84596E-08-6.77214E-04
 -1       126 7.72383E-04 5.55665E-15 1.55771E-05 7.00595E-09 5.84596E-08-6.77211E-04
 -3
    1PSTEP                       108          27           3          
  100CL  127 4.70000E-01         126                     1   27           1
 -4  ERROR       1    1
 -5  STR(%)      1    1    0    0
 -1         1 6.28245E+01
 -1         2 6.39758E+01
 -1         3 6.39758E+01
 -1         4 6.32932E+01
 -1         5 6.28245E+01
 -1         6 6.39758E+01
 -1         7 6.39758E+01
 -1         8 6.32932E+01
 -1         9 6.50376E+01
 -1        10 6.50376E+01
 -1        11 6.50376E+01
 -1        12 6.50376E+01
 -1        13 6.61575E+01
 -1        14 6.61575E+01
 -1        15 6.61575E+01
 -1        16 6.61575E+01
 -1        17 6.61575E+01
 -1        18 6.61575E+01
 -1        19 6.61575E+01
 -1        20 6.61575E+01
 -1        21 6.60530E+01
 -1        22 6.60530E+01
 -1        23 6.60530E+01
 -1        24 6.60530E+01
 -1        25 5.94864E+01
 -1        26 5.94864E+01
 -1        27 5.94864E+01
 -1        28 5.94864E+01
 -1        29 7.23271E+01
 -1        30 5.00431E+01
 -1        31 7.23271E+01
 -1        32 5.00431E+01
 -1        33 7.23271E+01
 -1        34 4.96301E+01
 -1        35 7.23271E+01
 -1        36 4.96301E+01
 -1        37 7.01946E+01
 -1        38 5.47612E+01
 -1        39 7.01946E+01
 -1        40 5.47612E+01
 -1        41 7.01946E+01
 -1        42 5.57056E+01
 -1        43 7.01946E+01
 -1        44 5.57056E+01
 -1        45 6.66872E+01
 -1        46 5.57056E+01
 -1        47 6.66872E+01
 -1        48 5.57056E+01
 -1        49 6.53637E+01
 -1        50 5.57309E+01
 -1        51 6.53637E+01
 -1        52 5.57309E+01
 -1        53 6.79725E+01
 -1        54 5.58488E+01
 -1        55 6.79725E+01
 -1        56 5.58488E+01
 -1        57 7.08317E+01
 -1        58 5.58488E+01
 -1        59 7.08317E+01
 -1        60 5.58488E+01
 -1        61 7.36464E+01
 -1        62 5.41684E+01
 -1        63 7.36464E+01
 -1        64 5.41684E+01
 -1        65 7.58352E+01
 -1        66 5.09855E+01
 -1        67 7.58352E+01
 -1        68 5.09855E+01
 -1        69 7.75633E+01
 -1        70 4.64341E+01
 -1        71 7.75633E+01
 -1        72 4.64341E+01
 -1        73 9.88248E+01
 -1        74 4.12104E+01
 -1        75 9.88248E+01
 -1        76 4.12104E+01
 -1        77 9.88248E+01
 -1        78 7.21202E+01
 -1        79 9.88248E+01
 -1        80 7.21202E+01
 -1        81 7.21202E+01
 -1        82 7.21202E+01
 -1        83 7.21202E+01
 -1        84 7.21202E+01
 -1        85 6.39758E+01
 -1        86 6.39758E+01
 -1        87 6.39758E+01
 -1        88 6.39758E+01
 -1        89 6.07081E+01
 -1        90 6.07081E+01
 -1        91 5.99847E+01
 -1        92 5.99847E+01
 -1        93 5.78968E+01
 -1        94 5.78968E+01
 -1        95 5.41294E+01
 -1        96 5.41294E+01
 -1        97 4.50824E+01
 -1        98 4.50824E+01
 -1        99 7.23271E+01
 -1       100 7.23271E+01
 -1       101 7.23271E+01
 -1       102 7.23271E+01
 -1       103 7.01946E+01
 -1       104 7.01946E+01
 -1       105 7.01946E+01
 -1       106 7.01946E+01
 -1       107 6.66872E+01
 -1       108 6.66872E+01
 -1       109 6.53637E+01
 -1       110 6.53637E+01
 -1       111 6.79725E+01
 -1       112 6.79725E+01
 -1       113 7.08317E+01
 -1       114 7.08317E+01
 -1       115 7.36464E+01
 -1       116 7.36464E+01
 -1       117 7.58352E+01
 -1       118 7.58352E+01
 -1       119 7.75633E+01
 -1       120 7.75633E+01
 -1       121 9.88248E+01
 -1       122 9.88248E+01
 -1       123 9.88248E+01
 -1       124 9.88248E+01
 -1       125 4.86546E+01
 -1       126 4.86546E+01
 -3
    1PSTEP                       109          28           3          
  100CL  128 4.80000E-01         126                     1   28           1
 -4  DISP        4    1
 -5  D1          1    2    1    0
 -5  D2          1    2    2    0
 -5  D3          1    2    3    0
 -5  ALL         1    2    0    0    1ALL
 -1         1 0.00000E+00 0.00000E+00 0.00000E+00
 -1         2 0.00000E+00 0.00000E+00 0.00000E+00
 -1         3 1.27687E-03 0.00000E+00-1.32707E-05
 -1         4 1.73695E-03 0.00000E+00-2.13401E-03
 -1         5 0.00000E+00 0.00000E+00 0.00000E+00
 -1         6 0.00000E+00 0.00000E+00 0.00000E+00
 -1         7 1.27688E-03 0.00000E+00-1.32823E-05
 -1         8 1.73697E-03 0.00000E+00-2.13402E-03
 -1         9 4.83674E-03 0.00000E+00-1.01536E-04
 -1        10 4.97663E-03 0.00000E+00-4.06017E-03
 -1        11 4.83675E-03 0.00000E+00-1.01548E-04
 -1        12 4.97663E-03 0.00000E+00-4.06018E-03
 -1        13 9.91844E-03 0.00000E+00-3.17459E-04
 -1        14 9.87134E-03 0.00000E+00-5.67556E-03
 -1        15 9.91843E-03 0.00000E+00-3.17471E-04
 -1        16 9.87132E-03 0.00000E+00-5.67556E-03
 -1        17 1.61953E-02 0.00000E+00-6.65511E-04
 -1        18 1.59483E-02 0.00000E+00-7.04100E-03
 -1        19 1.61953E-02 0.00000E+00-6.65520E-04
 -1        20 1.59482E-02 0.00000E+00-7.04099E-03
 -1        21 2.32764E-02 0.00000E+00-1.11758E-03
 -1        22 2.28703E-02 0.00000E+00-8.16364E-03
 -1        23 2.32764E-02 0.00000E+00-1.11758E-03
 -1        24 2.28703E-02 0.00000E+00-8.16364E-03
 -1        25 3.08302E-02 0.00000E+00-1.63626E-03
 -1        26 3.03101E-02 0.00000E+00-9.05572E-03
 -1        27 3.08302E-02 0.00000E+00-1.63625E-03
 -1        28 3.03101E-02 0.00000E+00-9.05572E-03
 -1        29 3.85860E-02 0.00000E+00-2.18331E-03
 -1        30 3.79968E-02 0.00000E+00-9.73150E-03
 -1        31 3.85860E-02 0.00000E+00-2.18330E-03
 -1        32 3.79968E-02 0.00000E+00-9.73148E-03
 -1        33 4.63281E-02 0.00000E+00-2.72513E-03
 -1        34 4.57088E-02 0.00000E+00-1.02052E-02
 -1        35 4.63281E-02 0.00000E+00-2.72511E-03
 -1        36 4.57088E-02 0.00000E+00-1.02051E-02
 -1        37 5.38786E-02 0.00000E+00-3.23549E-03
 -1        38 5.32624E-02 0.00000E+00-1.04929E-02
 -1        39 5.38786E-02 0.00000E+00-3.23547E-03
 -1        40 5.32624E-02 0.00000E+00-1.04928E-02
 -1        41 6.10972E-02 0.00000E+00-3.69580E-03
 -1        42 6.05092E-02 0.00000E+00-1.06202E-02
 -1        43 6.10972E-02 0.00000E+00-3.69580E-03
 -1        44 6.05092E-02 0.00000E+00-1.06202E-02
 -1        45 6.78947E-02 0.00000E+00-4.09680E-03
 -1        46 6.73520E-02 0.00000E+00-1.06254E-02
 -1        47 6.78946E-02 0.00000E+00-4.09679E-03
 -1        48 6.73520E-02 0.00000E+00-1.06254E-02
 -1        49 7.42392E-02 0.00000E+00-4.43927E-03
 -1        50 7.37506E-02 0.00000E+00-1.05533E-02
 -1        51 7.42392E-02 0.00000E+00-4.43927E-03
 -1        52 7.37506E-02 0.00000E+00-1.05533E-02
 -1        53 8.01375E-02 0.00000E+00-4.72879E-03
 -1        54 7.97043E-02 0.00000E+00-1.04444E-02
 -1        55 8.01375E-02 0.00000E+00-4.72880E-03
 -1        56 7.97043E-02 0.00000E+00-1.04444E-02
 -1        57 8.56251E-02 0.00000E+00-4.97396E-03
 -1        58 8.52461E-02 0.00000E+00-1.03350E-02
 -1        59 8.56251E-02 0.00000E+00-4.97397E-03
 -1        60 8.52461E-02 0.00000E+00-1.03350E-02
 -1        61 9.07628E-02 0.00000E+00-5.18592E-03
 -1        62 9.04334E-02 0.00000E+00-1.02600E-02
 -1        63 9.07628E-02 0.00000E+00-5.18593E-03
 -1        64 9.04334E-02 0.00000E+00-1.02601E-02
 -1        65 9.56410E-02 0.00000E+00-5.37664E-03
 -1        66 9.53533E-02 0.00000E+00-1.02486E-02
 -1        67 9.56410E-02 0.00000E+00-5.37666E-03
 -1        68 9.53533E-02 0.00000E+00-1.02487E-02
 -1        69 1.00370E-01 0.00000E+00-5.55876E-03
 -1        70 1.00115E-01 0.00000E+00-1.03133E-02
 -1        71 1.00370E-01 0.00000E+00-5.55876E-03
 -1        72 1.00115E-01 0.00000E+00-1.03133E-02
 -1        73 1.05044E-01 0.00000E+00-5.74428E-03
 -1        74 1.04806E-01 0.00000E+00-1.04403E-02
 -1        75 1.05044E-01 0.00000E+00-5.74427E-03
 -1        76 1.04806E-01 0.00000E+00-1.04403E-02
 -1        77 1.09700E-01 0.00000E+00-5.93696E-03
 -1        78 1.09485E-01 0.00000E+00-1.06119E-02
 -1        79 1.09700E-01 0.00000E+00-5.93694E-03
 -1        80 1.09485E-01 0.00000E+00-1.06118E-02
 -1        81 1.14364E-01 0.00000E+00-6.14549E-03
 -1        82 1.14108E-01 0.00000E+00-1.07884E-02
 -1        83 1.14364E-01 0.00000E+00-6.14547E-03
 -1        84 1.14108E-01 0.00000E+00-1.07883E-02
 -1        85 0.00000E+00 0.00000E+00 0.00000E+00
 -1        86 1.88632E-03 0.00000E+00 2.06868E-03
 -1        87 0.00000E+00 0.00000E+00 0.00000E+00
 -1        88 1.88636E-03 0.00000E+00 2.06869E-03
 -1        89 5.35524E-03 0.00000E+00 3.79151E-03
 -1        90 5.35528E-03 0.00000E+00 3.79150E-03
 -1        91 1.04988E-02 0.00000E+00 4.97053E-03
 -1        92 1.04989E-02 0.00000E+00 4.97050E-03
 -1        93 1.68122E-02 0.00000E+00 5.65447E-03
 -1        94 1.68122E-02 0.00000E+00 5.65444E-03
 -1        95 2.39159E-02 0.00000E+00 5.89112E-03
 -1        96 2.39159E-02 0.00000E+00 5.89111E-03
 -1        97 3.14672E-02 0.00000E+00 5.76456E-03
 -1        98 3.14672E-02 0.00000E+00 5.76458E-03
 -1        99 3.91975E-02 0.00000E+00 5.36256E-03
 -1       100 3.91975E-02 0.00000E+00 5.36257E-03
 -1       101 4.68933E-02 0.00000E+00 4.76455E-03
 -1       102 4.68934E-02 0.00000E+00 4.76455E-03
 -1       103 5.43827E-02 0.00000E+00 4.03936E-03
 -1       104 5.43827E-02 0.00000E+00 4.03936E-03
 -1       105 6.15349E-02 0.00000E+00 3.24991E-03
 -1       106 6.15349E-02 0.00000E+00 3.24991E-03
 -1       107 6.82689E-02 0.00000E+00 2.45344E-03
 -1       108 6.82690E-02 0.00000E+00 2.45343E-03
 -1       109 7.45590E-02 0.00000E+00 1.69419E-03
 -1       110 7.45591E-02 0.00000E+00 1.69416E-03
 -1       111 8.04146E-02 0.00000E+00 1.00201E-03
 -1       112 8.04146E-02 0.00000E+00 1.00197E-03
 -1       113 8.58719E-02 0.00000E+00 3.97498E-04
 -1       114 8.58719E-02 0.00000E+00 3.97456E-04
 -1       115 9.09937E-02 0.00000E+00-1.05125E-04
 -1       116 9.09937E-02 0.00000E+00-1.05145E-04
 -1       117 9.58674E-02 0.00000E+00-5.01677E-04
 -1       118 9.58674E-02 0.00000E+00-5.01693E-04
 -1       119 1.00598E-01 0.00000E+00-8.04661E-04
 -1       120 1.00598E-01 0.00000E+00-8.04664E-04
 -1       121 1.05269E-01 0.00000E+00-1.04707E-03
 -1       122 1.05269E-01 0.00000E+00-1.04708E-03
 -1       123 1.09935E-01 0.00000E+00-1.26450E-03
 -1       124 1.09935E-01 0.00000E+00-1.26449E-03
 -1       125 1.14545E-01 0.00000E+00-1.47162E-03
 -1       126 1.14545E-01 0.00000E+00-1.47162E-03
 -3
    1PSTEP                       110          28           3          
  100CL  128 4.80000E-01         126                     1   28           1
 -4  STRESS      6    1
 -5  SXX         1    4    1    1
 -5  SYY         1    4    2    2
 -5  SZZ         1    4    3    3
 -5  SXY         1    4    1    2
 -5  SYZ         1    4    2    3
 -5  SZX         1    4    3    1
 -1         1-9.62681E+03-9.92095E+03-2.15741E+04-9.81130E-05 8.32532E-05 4.64155E+03
 -1         2 1.45492E+02 1.40997E+01-3.32738E+02-3.81749E-05 3.51725E-05 3.91617E+03
 -1         3 6.11886E+01-5.79181E+01-3.31642E+02 4.68603E-03-5.98996E-03 9.59783E+02
 -1         4-3.45750E+03-6.72706E+03-1.78429E+04 9.81972E-03-7.09154E-03 7.39413E+02
 -1         5-9.62688E+03-9.92102E+03-2.15743E+04-9.81139E-05 8.32536E-05 4.64159E+03
 -1         6 1.45440E+02 1.40473E+01-3.32865E+02-3.81746E-05 3.51727E-05 3.91619E+03
 -1         7 6.10408E+01-5.80005E+01-3.31760E+02 4.68603E-03-5.98996E-03 9.59769E+02
 -1         8-3.45741E+03-6.72703E+03-1.78429E+04 9.81972E-03-7.09154E-03 7.39402E+02
 -1         9 9.90786E+01 2.19009E+01-1.35303E+02 6.99714E-03-6.43867E-03 1.20003E+03
 -1        10-4.09211E+03-6.02447E+03-1.51734E+04 4.77754E-05-2.84800E-03-1.29048E+02
 -1        11 9.88539E+01 2.18032E+01-1.35401E+02 6.99714E-03-6.43867E-03 1.20002E+03
 -1        12-4.09224E+03-6.02450E+03-1.51734E+04 4.77750E-05-2.84800E-03-1.29075E+02
 -1        13 1.89938E+02 6.83961E+01-1.10778E+01-2.87527E-03-6.22039E-03 1.08485E+03
 -1        14-2.75778E+03-4.34828E+03-1.12937E+04-8.70412E-03 1.70983E-03-8.53091E+01
 -1        15 1.89712E+02 6.82984E+01-1.11731E+01-2.87527E-03-6.22039E-03 1.08485E+03
 -1        16-2.75790E+03-4.34833E+03-1.12937E+04-8.70411E-03 1.70983E-03-8.53008E+01
 -1        17 2.29129E+02 1.00318E+02 8.29275E+01-1.01652E-02-4.60410E-03 1.01504E+03
 -1        18-1.91782E+03-3.01521E+03-7.91665E+03-1.53005E-02 2.32860E-03-1.49665E+01
 -1        19 2.28907E+02 1.00235E+02 8.28759E+01-1.01652E-02-4.60410E-03 1.01507E+03
 -1        20-1.91795E+03-3.01528E+03-7.91674E+03-1.53005E-02 2.32859E-03-1.49417E+01
 -1        21 2.31176E+02 1.22957E+02 1.73437E+02-1.06512E-02 1.11109E-03 8.96995E+02
 -1        22-1.12069E+03-1.81039E+03-4.83214E+03-1.51996E-02-2.97214E-04 1.45814E+02
 -1        23 2.30968E+02 1.22893E+02 1.73432E+02-1.06512E-02 1.11109E-03 8.97013E+02
 -1        24-1.12081E+03-1.81045E+03-4.83221E+03-1.51996E-02-2.97213E-04 1.45800E+02
 -1        25 2.09349E+02 1.37961E+02 2.53146E+02-1.15025E-02 5.80116E-03 7.65626E+02
 -1        26-4.61342E+02-7.99575E+02-2.18344E+03-1.77188E-02-6.39930E-04 3.13871E+02
 -1        27 2.09179E+02 1.37903E+02 2.53124E+02-1.15025E-02 5.80116E-03 7.65655E+02
 -1        28-4.61415E+02-7.99585E+02-2.18340E+03-1.77188E-02-6.39931E-04 3.13876E+02
 -1        29 1.72156E+02 1.46809E+02 3.21739E+02 5.25265E-03 5.83119E-03 6.41365E+02
 -1        30 6.90142E+01 2.44237E+01 1.84693E+01-3.41553E-03 6.05996E-03 4.66806E+02
 -1        31 1.71961E+02 1.46739E+02 3.21700E+02 5.25264E-03 5.83119E-03 6.41440E+02
 -1        32 6.89331E+01 2.44298E+01 1.85718E+01-3.41553E-03 6.05996E-03 4.66872E+02
 -1        33 1.29432E+02 1.51784E+02 3.79530E+02 7.35285E-03 1.13389E-02 5.22478E+02
 -1        34 4.79081E+02 6.78633E+02 1.80084E+03-1.09646E-03 1.57363E-02 5.79398E+02
 -1        35 1.29182E+02 1.51687E+02 3.79455E+02 7.35285E-03 1.13389E-02 5.22523E+02
 -1        36 4.78934E+02 6.78582E+02 1.80081E+03-1.09645E-03 1.57363E-02 5.79447E+02
 -1        37 8.75421E+01 1.54769E+02 4.28487E+02 5.88667E-04 1.19416E-02 3.93827E+02
 -1        38 7.77115E+02 1.17135E+03 3.16759E+03 1.10006E-03 1.21555E-02 6.25720E+02
 -1        39 8.73728E+01 1.54671E+02 4.28328E+02 5.88668E-04 1.19416E-02 3.93842E+02
 -1        40 7.77054E+02 1.17128E+03 3.16742E+03 1.10006E-03 1.21555E-02 6.25720E+02
 -1        41 4.36588E+01 1.54442E+02 4.68470E+02 1.09923E-03 2.73105E-03 2.56068E+02
 -1        42 9.55136E+02 1.49228E+03 4.08002E+03 1.47275E-03-1.27122E-03 5.99268E+02
 -1        43 4.34795E+01 1.54345E+02 4.68324E+02 1.09923E-03 2.73105E-03 2.56037E+02
 -1        44 9.55088E+02 1.49224E+03 4.07994E+03 1.47275E-03-1.27122E-03 5.99190E+02
 -1        45 9.02607E+00 1.52975E+02 4.96299E+02-8.06443E-03 3.47642E-03 1.29218E+02
 -1        46 1.02716E+03 1.64455E+03 4.52669E+03-1.51658E-02 3.59728E-03 5.21760E+02
 -1        47 8.82023E+00 1.52881E+02 4.96189E+02-8.06442E-03 3.47642E-03 1.29241E+02
 -1        48 1.02704E+03 1.64451E+03 4.52669E+03-1.51658E-02 3.59727E-03 5.21779E+02
 -1        49-1.41697E+01 1.50252E+02 5.09969E+02 1.90258E-03 8.35010E-04 2.41125E+01
 -1        50 1.01124E+03 1.65030E+03 4.56167E+03 4.91185E-03 4.67504E-03 4.15193E+02
 -1        51-1.42846E+01 1.50172E+02 5.09817E+02 1.90258E-03 8.35010E-04 2.41751E+01
 -1        52 1.01127E+03 1.65029E+03 4.56159E+03 4.91185E-03 4.67504E-03 4.15254E+02
 -1        53-3.17971E+01 1.45370E+02 5.12128E+02-4.02604E-03-6.43665E-03-6.35782E+01
 -1        54 9.21093E+02 1.53779E+03 4.26751E+03-7.11073E-04-6.18816E-03 2.93915E+02
 -1        55-3.18780E+01 1.45320E+02 5.12043E+02-4.02603E-03-6.43665E-03-6.35762E+01
 -1        56 9.21105E+02 1.53778E+03 4.26744E+03-7.11071E-04-6.18816E-03 2.93864E+02
 -1        57-3.75401E+01 1.40678E+02 5.03780E+02-9.98719E-03-3.59983E-03-1.37587E+02
 -1        58 7.82688E+02 1.33174E+03 3.70394E+03-1.04833E-02-3.99496E-03 1.68801E+02
 -1        59-3.77133E+01 1.40601E+02 5.03697E+02-9.98718E-03-3.59983E-03-1.37549E+02
 -1        60 7.82609E+02 1.33167E+03 3.70379E+03-1.04833E-02-3.99496E-03 1.68770E+02
 -1        61-4.19353E+01 1.31223E+02 4.78211E+02-1.08283E-02-5.61747E-03-1.89146E+02
 -1        62 5.99800E+02 1.04683E+03 2.91972E+03-9.20747E-03-1.96286E-02 5.42127E+01
 -1        63-4.21112E+01 1.31140E+02 4.78109E+02-1.08282E-02-5.61747E-03-1.89166E+02
 -1        64 5.99837E+02 1.04684E+03 2.91973E+03-9.20746E-03-1.96286E-02 5.41522E+01
 -1        65-3.73349E+01 1.19273E+02 4.34782E+02-9.01602E-03-7.69436E-03-1.93168E+02
 -1        66 4.04949E+02 7.27862E+02 2.03638E+03-2.07276E-03-7.95406E-03-1.80926E+01
 -1        67-3.72382E+01 1.19337E+02 4.34897E+02-9.01602E-03-7.69437E-03-1.93129E+02
 -1        68 4.05169E+02 7.27992E+02 2.03659E+03-2.07276E-03-7.95406E-03-1.80553E+01
 -1        69-2.02117E+01 1.03436E+02 3.65249E+02 1.60570E-03 3.00078E-03-1.44664E+02
 -1        70 2.59946E+02 4.54517E+02 1.26112E+03 3.49685E-03-5.52257E-03-4.05479E+01
 -1        71-2.03184E+01 1.03425E+02 3.65321E+02 1.60570E-03 3.00078E-03-1.44635E+02
 -1        72 2.60077E+02 4.54622E+02 1.26134E+03 3.49686E-03-5.52258E-03-4.05746E+01
 -1        73 7.70343E-01 8.42599E+01 2.80386E+02 1.10080E-03 5.63402E-03-8.52792E+01
 -1        74 1.27863E+02 2.43068E+02 6.84225E+02 4.70000E-03 9.51637E-03-7.17619E+00
 -1        75 6.92158E-01 8.42360E+01 2.80384E+02 1.10080E-03 5.63402E-03-8.52408E+01
 -1        76 1.28074E+02 2.43234E+02 6.84569E+02 4.70000E-03 9.51638E-03-7.13770E+00
 -1        77 3.74477E+00 4.97045E+01 1.61972E+02-1.35603E-03 8.09998E-03-3.54836E+01
 -1        78 2.28694E+02 2.16091E+02 4.92494E+02 6.46966E-03 2.48918E-02-6.16839E+01
 -1        79 3.67219E+00 4.96852E+01 1.61980E+02-1.35602E-03 8.09998E-03-3.54290E+01
 -1        80 2.28917E+02 2.16230E+02 4.92733E+02 6.46967E-03 2.48918E-02-6.16293E+01
 -1        81 3.39097E+01 3.78390E+01 9.26646E+01-1.44060E-03 1.20546E-02 2.03918E+01
 -1        82-2.71020E+02-1.24271E+01 2.30181E+02-1.09241E-02 2.93899E-02-3.97404E+01
 -1        83 3.39320E+01 3.78618E+01 9.27186E+01-1.44060E-03 1.20546E-02 2.04795E+01
 -1        84-2.71226E+02-1.25006E+01 2.30142E+02-1.09241E-02 2.93899E-02-3.97334E+01
 -1        85 9.89265E+03 9.51370E+03 2.37020E+04 1.33143E-04 1.48996E-04 6.58119E+03
 -1        86 3.28777E+03 6.50014E+03 1.95303E+04 2.20690E-02 4.45172E-03 2.31575E+03
 -1        87 9.89271E+03 9.51374E+03 2.37021E+04 1.33149E-04 1.48997E-04 6.58134E+03
 -1        88 3.28741E+03 6.49998E+03 1.95301E+04 2.20689E-02 4.45172E-03 2.31575E+03
 -1        89 3.89803E+03 5.85329E+03 1.64801E+04 2.03536E-02-5.66380E-03 1.85539E+03
 -1        90 3.89767E+03 5.85309E+03 1.64798E+04 2.03536E-02-5.66379E-03 1.85535E+03
 -1        91 2.92871E+03 4.41295E+03 1.22914E+04 1.10626E-02-1.58996E-02 1.93285E+03
 -1        92 2.92837E+03 4.41277E+03 1.22911E+04 1.10626E-02-1.58996E-02 1.93287E+03
 -1        93 2.21060E+03 3.18796E+03 8.68858E+03 7.33522E-03-1.50663E-02 1.66451E+03
 -1        94 2.21029E+03 3.18785E+03 8.68853E+03 7.33520E-03-1.50663E-02 1.66458E+03
 -1        95 1.45709E+03 2.05058E+03 5.49909E+03 9.01648E-03-3.11678E-03 1.30245E+03
 -1        96 1.45678E+03 2.05051E+03 5.49915E+03 9.01646E-03-3.11678E-03 1.30249E+03
 -1        97 7.81470E+02 1.07920E+03 2.85679E+03 3.93549E-03 9.15757E-03 9.12945E+02
 -1        98 7.81208E+02 1.07911E+03 2.85675E+03 3.93549E-03 9.15757E-03 9.12976E+02
 -1        99 1.94815E+02 2.71849E+02 7.20411E+02 2.05627E-02 4.35855E-03 5.63247E+02
 -1       100 1.94488E+02 2.71685E+02 7.20191E+02 2.05627E-02 4.35855E-03 5.63325E+02
 -1       101-2.87989E+02-3.78259E+02-9.67206E+02 2.38176E-02 6.45383E-05 2.68165E+02
 -1       102-2.88374E+02-3.78441E+02-9.67426E+02 2.38176E-02 6.45460E-05 2.68219E+02
 -1       103-6.55305E+02-8.69622E+02-2.22728E+03 1.19991E-02 1.15076E-03 2.61006E+01
 -1       104-6.55571E+02-8.69742E+02-2.22741E+03 1.19991E-02 1.15077E-03 2.61452E+01
 -1       105-9.05424E+02-1.19451E+03-3.04708E+03 1.40215E-02 7.20106E-04-1.58245E+02
 -1       106-9.05718E+02-1.19464E+03-3.04723E+03 1.40215E-02 7.20105E-04-1.58248E+02
 -1       107-1.03200E+03-1.35134E+03-3.43537E+03 3.53278E-03-1.06302E-03-2.75734E+02
 -1       108-1.03231E+03-1.35151E+03-3.43563E+03 3.53277E-03-1.06302E-03-2.75711E+02
 -1       109-1.05191E+03-1.36392E+03-3.45673E+03 1.13690E-02-1.25544E-02-3.34216E+02
 -1       110-1.05221E+03-1.36410E+03-3.45703E+03 1.13690E-02-1.25544E-02-3.34136E+02
 -1       111-9.87930E+02-1.26053E+03-3.18163E+03 3.16870E-03-1.84708E-02-3.54053E+02
 -1       112-9.88142E+02-1.26065E+03-3.18182E+03 3.16869E-03-1.84708E-02-3.53997E+02
 -1       113-8.48348E+02-1.05773E+03-2.65468E+03 4.87818E-03-2.14986E-02-3.48415E+02
 -1       114-8.48638E+02-1.05784E+03-2.65477E+03 4.87816E-03-2.14986E-02-3.48286E+02
 -1       115-6.65356E+02-7.86589E+02-1.94408E+03 6.34387E-03-1.04191E-02-3.20205E+02
 -1       116-6.65671E+02-7.86693E+02-1.94411E+03 6.34386E-03-1.04191E-02-3.20195E+02
 -1       117-4.60625E+02-4.90655E+02-1.17014E+03-6.48466E-03-8.24327E-03-2.58519E+02
 -1       118-4.60626E+02-4.90633E+02-1.17007E+03-6.48466E-03-8.24328E-03-2.58469E+02
 -1       119-2.81010E+02-2.41820E+02-5.23987E+02 2.05204E-02-1.88970E-03-1.75922E+02
 -1       120-2.81375E+02-2.41971E+02-5.24124E+02 2.05204E-02-1.88969E-03-1.75821E+02
 -1       121-1.06850E+02-6.89110E+01-1.22799E+02 1.34999E-02-5.00910E-03-8.91127E+01
 -1       122-1.07091E+02-6.90008E+01-1.22857E+02 1.34999E-02-5.00909E-03-8.90562E+01
 -1       123-1.83149E+02-6.14166E+01-2.13732E+01 1.51449E-02 5.40621E-03-9.88013E+01
 -1       124-1.83494E+02-6.15521E+01-2.14785E+01 1.51449E-02 5.40621E-03-9.88469E+01
 -1       125 3.96831E+02 2.00839E+02 2.73533E+02-1.08379E-02 5.43132E-04-2.04661E+02
 -1       126 3.96923E+02 2.00848E+02 2.73471E+02-1.08379E-02 5.43136E-04-2.04755E+02
 -3
    1PSTEP                       111          28           3          
  100CL  128 4.80000E-01         126                     1   28           1
 -4  TOSTRAIN    6    1
 -5  EXX         1    4    1    1
 -5  EYY         1    4    2    2
 -5  EZZ         1    4    3    3
 -5  EXY         1    4    1    2
 -5  EYZ         1    4    2    3
 -5  EZX         1    4    3    1
 -1         1-1.57138E-04-5.39079E-16-4.13219E-02-2.29762E-10 3.49852E-13 1.73692E-02
 -1         2-1.56903E-04-7.89988E-17-9.62271E-05-1.32029E-10 1.67562E-13 1.27685E-02
 -1         3-6.87046E-04 4.63454E-16 2.80858E-04 1.62355E-08-1.86898E-08 3.15531E-03
 -1         4 1.00066E-02 2.80787E-15-3.85597E-02 3.31722E-08-2.29530E-08 4.76561E-03
 -1         5-1.57139E-04-5.39079E-16-4.13222E-02-2.29764E-10 3.49853E-13 1.73694E-02
 -1         6-1.56905E-04-7.89988E-17-9.64564E-05-1.32029E-10 1.67562E-13 1.27686E-02
 -1         7-6.87273E-04 4.63454E-16 2.80736E-04 1.62355E-08-1.86898E-08 3.15526E-03
 -1         8 1.00068E-02 2.80787E-15-3.85597E-02 3.31722E-08-2.29530E-08 4.76558E-03
 -1         9-7.63884E-04 1.39684E-15 7.23893E-04 2.45650E-08-1.90200E-08 3.90507E-03
 -1        10 5.84434E-03-3.41924E-16-3.14288E-02 1.01742E-09-9.56683E-09 2.60119E-03
 -1        11-7.64283E-04 1.39684E-15 7.23872E-04 2.45650E-08-1.90200E-08 3.90500E-03
 -1        12 5.84405E-03-3.41924E-16-3.14286E-02 1.01741E-09-9.56683E-09 2.60106E-03
 -1        13-6.24586E-04 7.35293E-17 8.48539E-04-6.91750E-09-2.11058E-08 3.50597E-03
 -1        14 4.74903E-03 1.06728E-15-2.33227E-02-2.87998E-08 2.55910E-09 2.82255E-03
 -1        15-6.25007E-04 7.35293E-17 8.48540E-04-6.91751E-09-2.11058E-08 3.50594E-03
 -1        16 4.74877E-03 1.06728E-15-2.33227E-02-2.87998E-08 2.55911E-09 2.82253E-03
 -1        17-5.62247E-04 1.61088E-15 9.59606E-04-3.06930E-08-1.90677E-08 3.24323E-03
 -1        18 3.17539E-03 4.71954E-15-1.61094E-02-5.04144E-08 1.16630E-09 2.50511E-03
 -1        19-5.62729E-04 1.61088E-15 9.59729E-04-3.06930E-08-1.90677E-08 3.24328E-03
 -1        20 3.17515E-03 4.71954E-15-1.61094E-02-5.04144E-08 1.16631E-09 2.50516E-03
 -1        21-5.31710E-04 1.60154E-15 1.04946E-03-3.47438E-08-1.28086E-09 2.81762E-03
 -1        22 1.83018E-03 4.79478E-15-9.62528E-03-4.88172E-08-7.98962E-09 2.18508E-03
 -1        23-5.32185E-04 1.60154E-15 1.04965E-03-3.47437E-08-1.28086E-09 2.81758E-03
 -1        24 1.83001E-03 4.79478E-15-9.62535E-03-4.88172E-08-7.98962E-09 2.18502E-03
 -1        25-5.24132E-04 2.44564E-15 1.11790E-03-3.98210E-08 1.31013E-08 2.35053E-03
 -1        26 6.60302E-04 5.92462E-15-4.11259E-03-5.66541E-08-1.06322E-08 1.81442E-03
 -1        27-5.24520E-04 2.44564E-15 1.11804E-03-3.98210E-08 1.31013E-08 2.35055E-03
 -1        28 6.60101E-04 5.92462E-15-4.11243E-03-5.66541E-08-1.06322E-08 1.81438E-03
 -1        29-5.43640E-04 2.09783E-16 1.17937E-03 1.39373E-08 2.12689E-08 1.91045E-03
 -1        30-3.20166E-04 1.76777E-16 4.29261E-04-1.40066E-08 1.77731E-08 1.47164E-03
 -1        31-5.44107E-04 2.09783E-16 1.17953E-03 1.39373E-08 2.12689E-08 1.91060E-03
 -1        32-3.20501E-04 1.76777E-16 4.29623E-04-1.40066E-08 1.77731E-08 1.47175E-03
 -1        33-5.71016E-04 2.85629E-15 1.22764E-03 1.79826E-08 3.99588E-08 1.49638E-03
 -1        34-1.11914E-03 4.69112E-15 4.06922E-03-1.13021E-08 4.97675E-08 1.15207E-03
 -1        35-5.71543E-04 2.85629E-15 1.22774E-03 1.79826E-08 3.99588E-08 1.49644E-03
 -1        36-1.11949E-03 4.69112E-15 4.06935E-03-1.13021E-08 4.97676E-08 1.15216E-03
 -1        37-5.82671E-04 2.37703E-15 1.24967E-03-3.84166E-09 3.86306E-08 1.06269E-03
 -1        38-1.71680E-03 2.74286E-15 6.81426E-03-2.26878E-09 3.92500E-08 8.17573E-04
 -1        39-5.82913E-04 2.37703E-15 1.24949E-03-3.84165E-09 3.86306E-08 1.06274E-03
 -1        40-1.71678E-03 2.74286E-15 6.81394E-03-2.26878E-09 3.92500E-08 8.17624E-04
 -1        41-5.87977E-04-4.22207E-16 1.25092E-03 2.28381E-09 9.24360E-09 6.08271E-04
 -1        42-2.10563E-03-7.89193E-16 8.60524E-03 5.31369E-09-3.44173E-09 4.67734E-04
 -1        43-5.88214E-04-4.22207E-16 1.25073E-03 2.28380E-09 9.24360E-09 6.08162E-04
 -1        44-2.10559E-03-7.89193E-16 8.60504E-03 5.31369E-09-3.44173E-09 4.67513E-04
 -1        45-5.78342E-04 9.78125E-16 1.23338E-03-2.74930E-08 7.76973E-09 1.99370E-04
 -1        46-2.27425E-03 3.77529E-15 9.44017E-03-5.03403E-08 5.07689E-09 1.58404E-04
 -1        47-5.78716E-04 9.78125E-16 1.23334E-03-2.74930E-08 7.76973E-09 1.99402E-04
 -1        48-2.27453E-03 3.77529E-15 9.44029E-03-5.03403E-08 5.07689E-09 1.58413E-04
 -1        49-5.55748E-04-7.39143E-16 1.19886E-03 5.79725E-09 3.51261E-09-1.30799E-04
 -1        50-2.25381E-03-5.86208E-17 9.44492E-03 1.39702E-08 1.68801E-08-9.28907E-05
 -1        51-5.55915E-04-7.39143E-16 1.19868E-03 5.79725E-09 3.51261E-09-1.30588E-04
 -1        52-2.25371E-03-5.86208E-17 9.44477E-03 1.39702E-08 1.68801E-08-9.26595E-05
 -1        53-5.29812E-04 6.21558E-16 1.15286E-03-1.06285E-08-2.22328E-08-4.01126E-04
 -1        54-2.09777E-03 3.24532E-16 8.79636E-03 1.85636E-12-2.00277E-08-3.01500E-04
 -1        55-5.29915E-04 6.21558E-16 1.15275E-03-1.06285E-08-2.22328E-08-4.01118E-04
 -1        56-2.09764E-03 3.24532E-16 8.79616E-03 1.85507E-12-2.00277E-08-3.01625E-04
 -1        57-4.81997E-04 1.40114E-15 1.08659E-03-3.10545E-08-1.50669E-08-6.22887E-04
 -1        58-1.80628E-03 2.10769E-15 7.60378E-03-3.24581E-08-1.64148E-08-4.69836E-04
 -1        59-4.82331E-04 1.40114E-15 1.08659E-03-3.10545E-08-1.50669E-08-6.22797E-04
 -1        60-1.80629E-03 2.10769E-15 7.60350E-03-3.24581E-08-1.64148E-08-4.69912E-04
 -1        61-4.32822E-04 2.35404E-15 9.98512E-04-3.32046E-08-2.17294E-08-7.70813E-04
 -1        62-1.41938E-03 8.41645E-15 5.97275E-03-2.33392E-08-6.60067E-08-5.81709E-04
 -1        63-4.33106E-04 2.35404E-15 9.98435E-04-3.32045E-08-2.17294E-08-7.70901E-04
 -1        64-1.41926E-03 8.41645E-15 5.97269E-03-2.33392E-08-6.60067E-08-5.81889E-04
 -1        65-3.78149E-04 2.58047E-15 8.93740E-04-2.67672E-08-2.77030E-08-7.62865E-04
 -1        66-9.91446E-04 9.31324E-16 4.15436E-03-4.20193E-09-2.62228E-08-5.66563E-04
 -1        67-3.78063E-04 2.58047E-15 8.93930E-04-2.67672E-08-2.77031E-08-7.62744E-04
 -1        68-9.91175E-04 9.31324E-16 4.15466E-03-4.20193E-09-2.62228E-08-5.66443E-04
 -1        69-3.03392E-04-8.83458E-16 7.51293E-04 4.27482E-09 1.01970E-08-5.79016E-04
 -1        70-5.79138E-04 2.40897E-16 2.55245E-03 1.30017E-08-1.67347E-08-4.34475E-04
 -1        71-3.03716E-04-8.83458E-16 7.51571E-04 4.27482E-09 1.01970E-08-5.78981E-04
 -1        72-5.79034E-04 2.40897E-16 2.55280E-03 1.30017E-08-1.67347E-08-4.34587E-04
 -1        73-2.12067E-04 2.15266E-16 5.77210E-04 1.85352E-09 1.85556E-08-3.56643E-04
 -1        74-3.54237E-04 1.55201E-15 1.40869E-03 1.23132E-08 3.21685E-08-1.91122E-04
 -1        75-2.12265E-04 2.15266E-16 5.77303E-04 1.85353E-09 1.85556E-08-3.56543E-04
 -1        76-3.54112E-04 1.55201E-15 1.40929E-03 1.23132E-08 3.21685E-08-1.91039E-04
 -1        77-1.23322E-04 4.72115E-16 3.38696E-04-6.84181E-09 2.57896E-08-1.61029E-04
 -1        78 8.53810E-05 1.18715E-14 8.51776E-04 1.34143E-08 8.24063E-08-2.76100E-04
 -1        79-1.23526E-04 4.72115E-16 3.38816E-04-6.84180E-09 2.57896E-08-1.60879E-04
 -1        80 8.56240E-05 1.18715E-14 8.52133E-04 1.34144E-08 8.24063E-08-2.75930E-04
 -1        81-2.43589E-05 2.29191E-15 1.88771E-04-8.31607E-09 3.85645E-08 4.75817E-05
 -1        82-8.03617E-04 1.83837E-14 7.49585E-04-4.42089E-08 9.17395E-08-2.77545E-04
 -1        83-2.44131E-05 2.29191E-15 1.88924E-04-8.31605E-09 3.85645E-08 4.78525E-05
 -1        84-8.04048E-04 1.83837E-14 7.49698E-04-4.42089E-08 9.17395E-08-2.77572E-04
 -1        85-1.56668E-04-1.54898E-15 4.27832E-02 2.33407E-10 9.29513E-14 1.88629E-02
 -1        86-1.13807E-02 8.38819E-15 4.00648E-02 7.06603E-08 1.67178E-08 4.84078E-03
 -1        87-1.56672E-04-1.54898E-15 4.27834E-02 2.33416E-10 9.29515E-14 1.88633E-02
 -1        88-1.13813E-02 8.38819E-15 4.00647E-02 7.06602E-08 1.67178E-08 4.84076E-03
 -1        89-7.37211E-03 8.43643E-15 3.32152E-02 6.70993E-08-1.24782E-08 2.55573E-03
 -1        90-7.37262E-03 8.43643E-15 3.32148E-02 6.70992E-08-1.24782E-08 2.55560E-03
 -1        91-5.99820E-03 6.28790E-15 2.53961E-02 4.14136E-08-4.60493E-08 2.75484E-03
 -1        92-5.99878E-03 6.28790E-15 2.53959E-02 4.14136E-08-4.60493E-08 2.75488E-03
 -1        93-4.29988E-03 3.99376E-15 1.82642E-02 3.00837E-08-4.45268E-08 2.47565E-03
 -1        94-4.30061E-03 3.99376E-15 1.82645E-02 3.00837E-08-4.45268E-08 2.47577E-03
 -1        95-2.89360E-03-9.63709E-18 1.18458E-02 3.04670E-08-5.80971E-09 2.17355E-03
 -1        96-2.89438E-03-9.63709E-18 1.18463E-02 3.04669E-08-5.80972E-09 2.17351E-03
 -1        97-1.70857E-03 3.60464E-16 6.40704E-03 8.13943E-09 3.10856E-08 1.81735E-03
 -1        98-1.70914E-03 3.60464E-16 6.40722E-03 8.13942E-09 3.10856E-08 1.81735E-03
 -1        99-7.67114E-04 7.92514E-15 1.94956E-03 6.38727E-08 2.40239E-08 1.48293E-03
 -1       100-7.67713E-04 7.92514E-15 1.94945E-03 6.38727E-08 2.40240E-08 1.48312E-03
 -1       101-2.28960E-05 1.03161E-14-1.61291E-03 7.65262E-08 1.18379E-08 1.16189E-03
 -1       102-2.35984E-05 1.03161E-14-1.61300E-03 7.65262E-08 1.18379E-08 1.16198E-03
 -1       103 5.51458E-04 1.97863E-15-4.30975E-03 3.80529E-08 9.45985E-09 8.23061E-04
 -1       104 5.50955E-04 1.97863E-15-4.30977E-03 3.80529E-08 9.45984E-09 8.23139E-04
 -1       105 9.29674E-04 3.37983E-15-6.08774E-03 4.48415E-08 8.70031E-09 4.67934E-04
 -1       106 9.29164E-04 3.37983E-15-6.08780E-03 4.48415E-08 8.70031E-09 4.67857E-04
 -1       107 1.11757E-03-7.79190E-16-6.95025E-03 1.18285E-08-1.92305E-09 1.50128E-04
 -1       108 1.11709E-03-7.79190E-16-6.95052E-03 1.18285E-08-1.92305E-09 1.50177E-04
 -1       109 1.14231E-03 4.65806E-15-7.02900E-03 4.17109E-08-3.62445E-08-1.04711E-04
 -1       110 1.14188E-03 4.65806E-15-7.02934E-03 4.17109E-08-3.62445E-08-1.04456E-04
 -1       111 1.03814E-03 6.71877E-15-6.48021E-03 1.70760E-08-5.89451E-08-3.13888E-04
 -1       112 1.03781E-03 6.71877E-15-6.48040E-03 1.70760E-08-5.89450E-08-3.13720E-04
 -1       113 8.42283E-04 8.35906E-15-5.41147E-03 2.31970E-08-6.82029E-08-4.85279E-04
 -1       114 8.41632E-04 8.35906E-15-5.41130E-03 2.31970E-08-6.82029E-08-4.84937E-04
 -1       115 5.53732E-04 1.65015E-15-3.95425E-03 2.39162E-08-3.17758E-08-6.04416E-04
 -1       116 5.53046E-04 1.65015E-15-3.95401E-03 2.39162E-08-3.17758E-08-6.04479E-04
 -1       117 2.35149E-04 8.19014E-16-2.35807E-03-1.84168E-08-2.88132E-08-6.03751E-04
 -1       118 2.35048E-04 8.19014E-16-2.35788E-03-1.84168E-08-2.88132E-08-6.03614E-04
 -1       119-2.76463E-05 6.27782E-15-1.01944E-03 6.69981E-08 2.47240E-10-4.87996E-04
 -1       120-2.83989E-05 6.27782E-15-1.01934E-03 6.69981E-08 2.47263E-10-4.87745E-04
 -1       121-6.98974E-05 3.18601E-15-2.28701E-04 4.52096E-08-1.20862E-08-2.79930E-04
 -1       122-7.04177E-05 3.18601E-15-2.28569E-04 4.52095E-08-1.20862E-08-2.79805E-04
 -1       123-3.32024E-04 3.30391E-15 6.58362E-05 4.73889E-08 2.20943E-08-3.64486E-04
 -1       124-3.32675E-04 3.30391E-15 6.58998E-05 4.73889E-08 2.20943E-08-3.64705E-04
 -1       125 7.54899E-04-3.16852E-16 1.15962E-04-3.52089E-08-1.53417E-09-6.15282E-04
 -1       126 7.55222E-04-3.16852E-16 1.15679E-04-3.52089E-08-1.53414E-09-6.15538E-04
 -3
    1PSTEP                       112          28           3          
  100CL  128 4.80000E-01         126                     1   28           1
 -4  ERROR       1    1
 -5  STR(%)      1    1    0    0
 -1         1 6.22278E+01
 -1         2 6.42977E+01
 -1         3 6.42977E+01
 -1         4 6.25012E+01
 -1         5 6.22278E+01
 -1         6 6.42977E+01
 -1         7 6.42977E+01
 -1         8 6.25012E+01
 -1         9 6.39991E+01
 -1        10 6.39991E+01
 -1        11 6.39991E+01
 -1        12 6.39991E+01
 -1        13 6.47732E+01
 -1        14 6.47732E+01
 -1        15 6.47732E+01
 -1        16 6.47732E+01
 -1        17 6.49330E+01
 -1        18 6.49330E+01
 -1        19 6.49330E+01
 -1        20 6.49330E+01
 -1        21 6.49330E+01
 -1        22 6.49330E+01
 -1        23 6.49330E+01
 -1        24 6.49330E+01
 -1        25 6.64072E+01
 -1        26 6.64072E+01
 -1        27 6.64072E+01
 -1        28 6.64072E+01
 -1        29 6.64072E+01
 -1        30 6.64072E+01
 -1        31 6.64072E+01
 -1        32 6.64072E+01
 -1        33 6.92096E+01
 -1        34 4.24587E+01
 -1        35 6.92096E+01
 -1        36 4.24587E+01
 -1        37 7.92377E+01
 -1        38 4.95851E+01
 -1        39 7.92377E+01
 -1        40 4.95851E+01
 -1        41 7.92377E+01
 -1        42 5.08090E+01
 -1        43 7.92377E+01
 -1        44 5.08090E+01
 -1        45 7.36043E+01
 -1        46 5.08090E+01
 -1        47 7.36043E+01
 -1        48 5.08090E+01
 -1        49 7.20755E+01
 -1        50 5.10876E+01
 -1        51 7.20755E+01
 -1        52 5.10876E+01
 -1        53 7.52926E+01
 -1        54 5.10876E+01
 -1        55 7.52926E+01
 -1        56 5.10876E+01
 -1        57 7.89294E+01
 -1        58 5.09248E+01
 -1        59 7.89294E+01
 -1        60 5.09248E+01
 -1        61 7.89294E+01
 -1        62 4.97008E+01
 -1        63 7.89294E+01
 -1        64 4.97008E+01
 -1        65 7.82265E+01
 -1        66 4.61358E+01
 -1        67 7.82265E+01
 -1        68 4.61358E+01
 -1        69 7.60334E+01
 -1        70 3.86318E+01
 -1        71 7.60334E+01
 -1        72 3.86318E+01
 -1        73 7.60334E+01
 -1        74 3.09560E+01
 -1        75 7.60334E+01
 -1        76 3.09560E+01
 -1        77 7.15587E+01
 -1        78 7.15466E+01
 -1        79 7.15587E+01
 -1        80 7.15466E+01
 -1        81 7.15466E+01
 -1        82 7.15466E+01
 -1        83 7.15466E+01
 -1        84 7.15466E+01
 -1        85 6.42977E+01
 -1        86 6.42977E+01
 -1        87 6.42977E+01
 -1        88 6.42977E+01
 -1        89 6.14420E+01
 -1        90 6.14420E+01
 -1        91 6.08937E+01
 -1        92 6.08937E+01
 -1        93 5.90885E+01
 -1        94 5.90885E+01
 -1        95 5.57236E+01
 -1        96 5.57236E+01
 -1        97 4.83055E+01
 -1        98 4.83055E+01
 -1        99 4.47411E+01
 -1       100 4.47411E+01
 -1       101 6.92096E+01
 -1       102 6.92096E+01
 -1       103 7.92377E+01
 -1       104 7.92377E+01
 -1       105 7.92377E+01
 -1       106 7.92377E+01
 -1       107 7.36043E+01
 -1       108 7.36043E+01
 -1       109 7.20755E+01
 -1       110 7.20755E+01
 -1       111 7.52926E+01
 -1       112 7.52926E+01
 -1       113 7.89294E+01
 -1       114 7.89294E+01
 -1       115 7.89294E+01
 -1       116 7.89294E+01
 -1       117 7.82265E+01
 -1       118 7.82265E+01
 -1       119 7.60334E+01
 -1       120 7.60334E+01
 -1       121 7.60334E+01
 -1       122 7.60334E+01
 -1       123 7.15587E+01
 -1       124 7.15587E+01
 -1       125 5.54363E+01
 -1       126 5.54363E+01
 -3
    1PSTEP                       113          29           3          
  100CL  129 4.90000E-01         126                     1   29           1
 -4  DISP        4    1
 -5  D1          1    2    1    0
 -5  D2          1    2    2    0
 -5  D3          1    2    3    0
 -5  ALL         1    2    0    0    1ALL
 -1         1 0.00000E+00 0.00000E+00 0.00000E+00
 -1         2 0.00000E+00 0.00000E+00 0.00000E+00
 -1         3 1.25654E-03 0.00000E+00-3.04757E-05
 -1         4 1.72833E-03 0.00000E+00-2.16047E-03
 -1         5 0.00000E+00 0.00000E+00 0.00000E+00
 -1         6 0.00000E+00 0.00000E+00 0.00000E+00
 -1         7 1.25656E-03 0.00000E+00-3.04706E-05
 -1         8 1.72833E-03 0.00000E+00-2.16045E-03
 -1         9 4.82095E-03 0.00000E+00-1.39641E-04
 -1        10 4.97279E-03 0.00000E+00-4.12716E-03
 -1        11 4.82099E-03 0.00000E+00-1.39633E-04
 -1        12 4.97282E-03 0.00000E+00-4.12712E-03
 -1        13 9.93726E-03 0.00000E+00-3.74814E-04
 -1        14 9.89719E-03 0.00000E+00-5.78894E-03
 -1        15 9.93726E-03 0.00000E+00-3.74804E-04
 -1        16 9.89719E-03 0.00000E+00-5.78890E-03
 -1        17 1.62783E-02 0.00000E+00-7.40824E-04
 -1        18 1.60316E-02 0.00000E+00-7.20425E-03
 -1        19 1.62782E-02 0.00000E+00-7.40817E-04
 -1        20 1.60316E-02 0.00000E+00-7.20423E-03
 -1        21 2.34565E-02 0.00000E+00-1.21098E-03
 -1        22 2.30430E-02 0.00000E+00-8.38230E-03
 -1        23 2.34565E-02 0.00000E+00-1.21098E-03
 -1        24 2.30430E-02 0.00000E+00-8.38229E-03
 -1        25 3.11509E-02 0.00000E+00-1.74922E-03
 -1        26 3.06142E-02 0.00000E+00-9.33810E-03
 -1        27 3.11509E-02 0.00000E+00-1.74922E-03
 -1        28 3.06142E-02 0.00000E+00-9.33810E-03
 -1        29 3.91025E-02 0.00000E+00-2.31945E-03
 -1        30 3.84869E-02 0.00000E+00-1.00835E-02
 -1        31 3.91025E-02 0.00000E+00-2.31945E-03
 -1        32 3.84869E-02 0.00000E+00-1.00835E-02
 -1        33 4.70930E-02 0.00000E+00-2.88783E-03
 -1        34 4.64373E-02 0.00000E+00-1.06236E-02
 -1        35 4.70930E-02 0.00000E+00-2.88783E-03
 -1        36 4.64373E-02 0.00000E+00-1.06236E-02
 -1        37 5.49305E-02 0.00000E+00-3.42375E-03
 -1        38 5.42691E-02 0.00000E+00-1.09671E-02
 -1        39 5.49305E-02 0.00000E+00-3.42375E-03
 -1        40 5.42691E-02 0.00000E+00-1.09671E-02
 -1        41 6.24609E-02 0.00000E+00-3.90613E-03
 -1        42 6.18234E-02 0.00000E+00-1.11396E-02
 -1        43 6.24610E-02 0.00000E+00-3.90612E-03
 -1        44 6.18234E-02 0.00000E+00-1.11396E-02
 -1        45 6.95877E-02 0.00000E+00-4.32634E-03
 -1        46 6.89943E-02 0.00000E+00-1.11846E-02
 -1        47 6.95877E-02 0.00000E+00-4.32633E-03
 -1        48 6.89943E-02 0.00000E+00-1.11846E-02
 -1        49 7.62768E-02 0.00000E+00-4.68569E-03
 -1        50 7.57374E-02 0.00000E+00-1.11517E-02
 -1        51 7.62768E-02 0.00000E+00-4.68569E-03
 -1        52 7.57374E-02 0.00000E+00-1.11517E-02
 -1        53 8.25432E-02 0.00000E+00-4.99304E-03
 -1        54 8.20611E-02 0.00000E+00-1.10850E-02
 -1        55 8.25432E-02 0.00000E+00-4.99304E-03
 -1        56 8.20611E-02 0.00000E+00-1.10850E-02
 -1        57 8.84279E-02 0.00000E+00-5.26023E-03
 -1        58 8.80005E-02 0.00000E+00-1.10206E-02
 -1        59 8.84279E-02 0.00000E+00-5.26024E-03
 -1        60 8.80005E-02 0.00000E+00-1.10206E-02
 -1        61 9.39860E-02 0.00000E+00-5.49807E-03
 -1        62 9.36089E-02 0.00000E+00-1.09891E-02
 -1        63 9.39859E-02 0.00000E+00-5.49808E-03
 -1        64 9.36089E-02 0.00000E+00-1.09891E-02
 -1        65 9.92960E-02 0.00000E+00-5.71861E-03
 -1        66 9.89630E-02 0.00000E+00-1.10177E-02
 -1        67 9.92960E-02 0.00000E+00-5.71860E-03
 -1        68 9.89630E-02 0.00000E+00-1.10177E-02
 -1        69 1.04457E-01 0.00000E+00-5.93502E-03
 -1        70 1.04157E-01 0.00000E+00-1.11213E-02
 -1        71 1.04457E-01 0.00000E+00-5.93503E-03
 -1        72 1.04157E-01 0.00000E+00-1.11213E-02
 -1        73 1.09565E-01 0.00000E+00-6.15786E-03
 -1        74 1.09283E-01 0.00000E+00-1.12909E-02
 -1        75 1.09565E-01 0.00000E+00-6.15787E-03
 -1        76 1.09283E-01 0.00000E+00-1.12909E-02
 -1        77 1.14665E-01 0.00000E+00-6.39050E-03
 -1        78 1.14407E-01 0.00000E+00-1.15103E-02
 -1        79 1.14665E-01 0.00000E+00-6.39050E-03
 -1        80 1.14407E-01 0.00000E+00-1.15103E-02
 -1        81 1.19781E-01 0.00000E+00-6.64218E-03
 -1        82 1.19481E-01 0.00000E+00-1.17334E-02
 -1        83 1.19780E-01 0.00000E+00-6.64217E-03
 -1        84 1.19481E-01 0.00000E+00-1.17334E-02
 -1        85 0.00000E+00 0.00000E+00 0.00000E+00
 -1        86 1.85938E-03 0.00000E+00 2.05609E-03
 -1        87 0.00000E+00 0.00000E+00 0.00000E+00
 -1        88 1.85938E-03 0.00000E+00 2.05609E-03
 -1        89 5.33788E-03 0.00000E+00 3.78074E-03
 -1        90 5.33790E-03 0.00000E+00 3.78075E-03
 -1        91 1.05233E-02 0.00000E+00 4.96861E-03
 -1        92 1.05233E-02 0.00000E+00 4.96861E-03
 -1        93 1.69098E-02 0.00000E+00 5.66657E-03
 -1        94 1.69097E-02 0.00000E+00 5.66659E-03
 -1        95 2.41211E-02 0.00000E+00 5.92243E-03
 -1        96 2.41211E-02 0.00000E+00 5.92245E-03
 -1        97 3.18247E-02 0.00000E+00 5.81963E-03
 -1        98 3.18247E-02 0.00000E+00 5.81962E-03
 -1        99 3.97598E-02 0.00000E+00 5.44075E-03
 -1       100 3.97598E-02 0.00000E+00 5.44075E-03
 -1       101 4.77106E-02 0.00000E+00 4.85791E-03
 -1       102 4.77106E-02 0.00000E+00 4.85793E-03
 -1       103 5.54913E-02 0.00000E+00 4.13846E-03
 -1       104 5.54913E-02 0.00000E+00 4.13848E-03
 -1       105 6.29570E-02 0.00000E+00 3.34976E-03
 -1       106 6.29570E-02 0.00000E+00 3.34976E-03
 -1       107 7.00215E-02 0.00000E+00 2.55396E-03
 -1       108 7.00215E-02 0.00000E+00 2.55394E-03
 -1       109 7.66568E-02 0.00000E+00 1.79885E-03
 -1       110 7.66568E-02 0.00000E+00 1.79886E-03
 -1       111 8.28792E-02 0.00000E+00 1.11318E-03
 -1       112 8.28792E-02 0.00000E+00 1.11319E-03
 -1       113 8.87315E-02 0.00000E+00 5.10293E-04
 -1       114 8.87315E-02 0.00000E+00 5.10308E-04
 -1       115 9.42692E-02 0.00000E+00-2.13991E-06
 -1       116 9.42692E-02 0.00000E+00-2.13903E-06
 -1       117 9.95699E-02 0.00000E+00-4.19393E-04
 -1       118 9.95699E-02 0.00000E+00-4.19383E-04
 -1       119 1.04729E-01 0.00000E+00-7.50314E-04
 -1       120 1.04729E-01 0.00000E+00-7.50309E-04
 -1       121 1.09835E-01 0.00000E+00-1.02250E-03
 -1       122 1.09835E-01 0.00000E+00-1.02251E-03
 -1       123 1.14945E-01 0.00000E+00-1.27283E-03
 -1       124 1.14945E-01 0.00000E+00-1.27285E-03
 -1       125 1.20007E-01 0.00000E+00-1.51956E-03
 -1       126 1.20007E-01 0.00000E+00-1.51958E-03
 -3
    1PSTEP                       114          29           3          
  100CL  129 4.90000E-01         126                     1   29           1
 -4  STRESS      6    1
 -5  SXX         1    4    1    1
 -5  SYY         1    4    2    2
 -5  SZZ         1    4    3    3
 -5  SXY         1    4    1    2
 -5  SYZ         1    4    2    3
 -5  SZX         1    4    3    1
 -1         1-9.76092E+03-1.00500E+04-2.18293E+04 7.82049E-05-3.18254E-05 4.61146E+03
 -1         2 5.69109E+01-6.76584E+01-5.25600E+02 2.16980E-05 5.37394E-05 3.85034E+03
 -1         3 7.35713E+01-1.02787E+02-4.94754E+02 7.77310E-03 2.77792E-03 9.09613E+02
 -1         4-3.48165E+03-6.82471E+03-1.81038E+04-2.60570E-03 8.34202E-03 7.00550E+02
 -1         5-9.76084E+03-1.00499E+04-2.18292E+04 7.82040E-05-3.18248E-05 4.61145E+03
 -1         6 5.69430E+01-6.76332E+01-5.25539E+02 2.16980E-05 5.37392E-05 3.85039E+03
 -1         7 7.35962E+01-1.02763E+02-4.94706E+02 7.77310E-03 2.77792E-03 9.09687E+02
 -1         8-3.48179E+03-6.82473E+03-1.81038E+04-2.60569E-03 8.34202E-03 7.00628E+02
 -1         9 1.11498E+02-2.04016E+01-2.92512E+02 1.66006E-02 4.23519E-03 1.16583E+03
 -1        10-4.13412E+03-6.15129E+03-1.55110E+04 1.39194E-02 1.59882E-02-1.77727E+02
 -1        11 1.11504E+02-2.03943E+01-2.92497E+02 1.66006E-02 4.23519E-03 1.16586E+03
 -1        12-4.13414E+03-6.15127E+03-1.55109E+04 1.39194E-02 1.59882E-02-1.77636E+02
 -1        13 2.03151E+02 4.03989E+01-1.21414E+02 3.33688E-03 5.19862E-03 1.05765E+03
 -1        14-2.82091E+03-4.48588E+03-1.16572E+04 2.58112E-03 1.94895E-02-1.43447E+02
 -1        15 2.03127E+02 4.03833E+01-1.21445E+02 3.33688E-03 5.19862E-03 1.05762E+03
 -1        16-2.82101E+03-4.48595E+03-1.16573E+04 2.58112E-03 1.94895E-02-1.43442E+02
 -1        17 2.41728E+02 8.76994E+01 2.48637E+01-1.05263E-02 3.54817E-03 9.88068E+02
 -1        18-1.99703E+03-3.15703E+03-8.28880E+03-1.46450E-02 8.15273E-03-8.33626E+01
 -1        19 2.41642E+02 8.76509E+01 2.47875E+01-1.05263E-02 3.54817E-03 9.88046E+02
 -1        20-1.99723E+03-3.15717E+03-8.28905E+03-1.46450E-02 8.15272E-03-8.33843E+01
 -1        21 2.44365E+02 1.25846E+02 1.67532E+02-2.24409E-03 4.61837E-04 8.76564E+02
 -1        22-1.21583E+03-1.95950E+03-5.22134E+03-1.36127E-02 8.70091E-04 7.38344E+01
 -1        23 2.44234E+02 1.25780E+02 1.67442E+02-2.24408E-03 4.61837E-04 8.76593E+02
 -1        24-1.21609E+03-1.95963E+03-5.22151E+03-1.36127E-02 8.70086E-04 7.38723E+01
 -1        25 2.25625E+02 1.55597E+02 2.94710E+02 2.97080E-03-1.10347E-03 7.66428E+02
 -1        26-5.63566E+02-9.49963E+02-2.57699E+03-4.58775E-03 1.04207E-03 2.54968E+02
 -1        27 2.25534E+02 1.55551E+02 2.94648E+02 2.97079E-03-1.10347E-03 7.66438E+02
 -1        28-5.63728E+02-9.50041E+02-2.57709E+03-4.58774E-03 1.04207E-03 2.55003E+02
 -1        29 2.02483E+02 1.81628E+02 4.07787E+02-3.64726E-03-1.63047E-03 6.68758E+02
 -1        30-1.29805E+01-1.00764E+02-3.16757E+02-7.86849E-03-1.40842E-03 4.35313E+02
 -1        31 2.02427E+02 1.81602E+02 4.07757E+02-3.64726E-03-1.63047E-03 6.68735E+02
 -1        32-1.31160E+01-1.00843E+02-3.16887E+02-7.86848E-03-1.40841E-03 4.35296E+02
 -1        33 1.66645E+02 2.02441E+02 5.12441E+02-3.17204E-03-2.21813E-03 5.68327E+02
 -1        34 4.23347E+02 5.97739E+02 1.58507E+03-1.07210E-02-7.45095E-03 5.78464E+02
 -1        35 1.66572E+02 2.02418E+02 5.12437E+02-3.17204E-03-2.21814E-03 5.68338E+02
 -1        36 4.23188E+02 5.97664E+02 1.58497E+03-1.07209E-02-7.45095E-03 5.78459E+02
 -1        37 1.17755E+02 2.17545E+02 6.09387E+02 1.37393E-02-7.32901E-04 4.46726E+02
 -1        38 7.35780E+02 1.13278E+03 3.07988E+03-9.59935E-04-6.26735E-03 6.51101E+02
 -1        39 1.17646E+02 2.17523E+02 6.09423E+02 1.37393E-02-7.32897E-04 4.46761E+02
 -1        40 7.35604E+02 1.13276E+03 3.08000E+03-9.59935E-04-6.26735E-03 6.51141E+02
 -1        41 7.14861E+01 2.28185E+02 6.88585E+02 1.88804E-02 5.51333E-03 3.06168E+02
 -1        42 9.27700E+02 1.48404E+03 4.08188E+03 6.04767E-03 1.37678E-02 6.39313E+02
 -1        43 7.14005E+01 2.28157E+02 6.88577E+02 1.88804E-02 5.51333E-03 3.06202E+02
 -1        44 9.27542E+02 1.48403E+03 4.08200E+03 6.04767E-03 1.37678E-02 6.39404E+02
 -1        45 3.10323E+01 2.31830E+02 7.39422E+02 7.54169E-03 5.02240E-03 1.68473E+02
 -1        46 9.99844E+02 1.64494E+03 4.55823E+03 5.91697E-03 1.79159E-02 5.59214E+02
 -1        47 3.09630E+01 2.31784E+02 7.39336E+02 7.54169E-03 5.02240E-03 1.68464E+02
 -1        48 9.99712E+02 1.64484E+03 4.55804E+03 5.91696E-03 1.79158E-02 5.59214E+02
 -1        49 9.16164E-01 2.28133E+02 7.56619E+02-1.03661E-02 2.66994E-03 5.60263E+01
 -1        50 9.75252E+02 1.64419E+03 4.57955E+03-1.74599E-02 2.26820E-03 4.48371E+02
 -1        51 7.88808E-01 2.28074E+02 7.56551E+02-1.03661E-02 2.66994E-03 5.59932E+01
 -1        52 9.74989E+02 1.64403E+03 4.57927E+03-1.74599E-02 2.26820E-03 4.48296E+02
 -1        53-1.07860E+01 2.19429E+02 7.39759E+02-5.79820E-03 3.62781E-03-2.79398E+01
 -1        54 8.93342E+02 1.52795E+03 4.26371E+03-1.67940E-02-1.63489E-03 3.32105E+02
 -1        55-1.09363E+01 2.19349E+02 7.39645E+02-5.79819E-03 3.62781E-03-2.79163E+01
 -1        56 8.93086E+02 1.52781E+03 4.26350E+03-1.67940E-02-1.63489E-03 3.32125E+02
 -1        57-1.97108E+01 2.02744E+02 6.94173E+02 6.38211E-03-4.27908E-03-9.61188E+01
 -1        58 7.57599E+02 1.32134E+03 3.69514E+03-1.68295E-03-9.90825E-03 2.13189E+02
 -1        59-1.98133E+01 2.02685E+02 6.94078E+02 6.38211E-03-4.27908E-03-9.61726E+01
 -1        60 7.57460E+02 1.32130E+03 3.69512E+03-1.68295E-03-9.90824E-03 2.13167E+02
 -1        61-2.30595E+01 1.82200E+02 6.30137E+02-6.36561E-03-4.33615E-03-1.48643E+02
 -1        62 5.86540E+02 1.04723E+03 2.93519E+03-1.54592E-02 2.64068E-03 9.92916E+01
 -1        63-2.30622E+01 1.82216E+02 6.30197E+02-6.36560E-03-4.33615E-03-1.48670E+02
 -1        64 5.86347E+02 1.04715E+03 2.93513E+03-1.54592E-02 2.64069E-03 9.92906E+01
 -1        65-1.52204E+01 1.58763E+02 5.44842E+02-5.83556E-03 3.11030E-03-1.68419E+02
 -1        66 4.11485E+02 7.41190E+02 2.07511E+03-1.84792E-02-4.88817E-03 1.10990E+01
 -1        67-1.54335E+01 1.58677E+02 5.44767E+02-5.83555E-03 3.11030E-03-1.68393E+02
 -1        68 4.11198E+02 7.41046E+02 2.07492E+03-1.84791E-02-4.88817E-03 1.10886E+01
 -1        69-2.26635E+00 1.30094E+02 4.36440E+02 9.99282E-03-3.52246E-03-1.35879E+02
 -1        70 2.67096E+02 4.63474E+02 1.28416E+03-4.73287E-03-7.15599E-03-2.81712E+01
 -1        71-2.35569E+00 1.30041E+02 4.36352E+02 9.99282E-03-3.52246E-03-1.35848E+02
 -1        72 2.66852E+02 4.63390E+02 1.28412E+03-4.73287E-03-7.15599E-03-2.81063E+01
 -1        73 1.36033E+01 1.01726E+02 3.25896E+02 1.40023E-02-3.68314E-03-7.68782E+01
 -1        74 1.28238E+02 2.37708E+02 6.65960E+02 6.48552E-03 2.40064E-03 1.86211E+00
 -1        75 1.35873E+01 1.01730E+02 3.25928E+02 1.40023E-02-3.68314E-03-7.68628E+01
 -1        76 1.28094E+02 2.37656E+02 6.65933E+02 6.48551E-03 2.40064E-03 1.89059E+00
 -1        77 1.27928E+01 5.94019E+01 1.85312E+02 8.36336E-03 1.58694E-03-2.44695E+01
 -1        78 2.19229E+02 2.02934E+02 4.57964E+02-9.46928E-03-1.88492E-03-5.20670E+01
 -1        79 1.27704E+01 5.94111E+01 1.85365E+02 8.36336E-03 1.58694E-03-2.45322E+01
 -1        80 2.18865E+02 2.02788E+02 4.57841E+02-9.46926E-03-1.88492E-03-5.21000E+01
 -1        81 4.34407E+01 4.41894E+01 1.04293E+02-1.64746E-02 4.56323E-03 2.97047E+01
 -1        82-2.68827E+02-1.89057E+01 2.06326E+02-1.54160E-03 5.51794E-03-2.74277E+01
 -1        83 4.33941E+01 4.41808E+01 1.04310E+02-1.64746E-02 4.56324E-03 2.96056E+01
 -1        84-2.68433E+02-1.86995E+01 2.06620E+02-1.54161E-03 5.51794E-03-2.73795E+01
 -1        85 9.81995E+03 9.45343E+03 2.35365E+04-5.02787E-06-2.03120E-05 6.48110E+03
 -1        86 3.33068E+03 6.50436E+03 1.94912E+04-3.01939E-03 1.71102E-03 2.27022E+03
 -1        87 9.81996E+03 9.45344E+03 2.35365E+04-5.02735E-06-2.03120E-05 6.48109E+03
 -1        88 3.33091E+03 6.50446E+03 1.94913E+04-3.01940E-03 1.71101E-03 2.27027E+03
 -1        89 3.97482E+03 5.90469E+03 1.65802E+04 1.29103E-02 2.15534E-03 1.85487E+03
 -1        90 3.97489E+03 5.90472E+03 1.65802E+04 1.29103E-02 2.15534E-03 1.85490E+03
 -1        91 3.02013E+03 4.49643E+03 1.24905E+04 7.59502E-04 2.93326E-03 1.95180E+03
 -1        92 3.02019E+03 4.49648E+03 1.24906E+04 7.59502E-04 2.93326E-03 1.95175E+03
 -1        93 2.31517E+03 3.30431E+03 8.98696E+03-8.62795E-03 1.03094E-02 1.69423E+03
 -1        94 2.31515E+03 3.30431E+03 8.98699E+03-8.62795E-03 1.03095E-02 1.69419E+03
 -1        95 1.57683E+03 2.20330E+03 5.90303E+03-6.67977E-04 5.92578E-03 1.34708E+03
 -1        96 1.57676E+03 2.20324E+03 5.90290E+03-6.67977E-04 5.92577E-03 1.34708E+03
 -1        97 9.11211E+02 1.26132E+03 3.34494E+03 2.73513E-03-3.22768E-03 9.79308E+02
 -1        98 9.11185E+02 1.26130E+03 3.34488E+03 2.73513E-03-3.22768E-03 9.79309E+02
 -1        99 3.33543E+02 4.67275E+02 1.23770E+03-3.73621E-03 6.21838E-04 6.44453E+02
 -1       100 3.33596E+02 4.67328E+02 1.23782E+03-3.73621E-03 6.21838E-04 6.44439E+02
 -1       101-1.61772E+02-1.93905E+02-4.80437E+02 4.95815E-04 8.32346E-03 3.48695E+02
 -1       102-1.61766E+02-1.93875E+02-4.80343E+02 4.95816E-04 8.32347E-03 3.48702E+02
 -1       103-5.60562E+02-7.07523E+02-1.78755E+03 1.73183E-02 8.02850E-03 9.48109E+01
 -1       104-5.60646E+02-7.07579E+02-1.78765E+03 1.73183E-02 8.02850E-03 9.48002E+01
 -1       105-8.28202E+02-1.04251E+03-2.62628E+03 1.50260E-02-2.06702E-03-1.03636E+02
 -1       106-8.28227E+02-1.04257E+03-2.62645E+03 1.50260E-02-2.06702E-03-1.03637E+02
 -1       107-9.64737E+02-1.19832E+03-3.00281E+03 5.70239E-03-9.30079E-03-2.35165E+02
 -1       108-9.64735E+02-1.19833E+03-3.00282E+03 5.70239E-03-9.30079E-03-2.35147E+02
 -1       109-9.86582E+02-1.20415E+03-3.00037E+03-7.76400E-03 1.07758E-03-3.02730E+02
 -1       110-9.86572E+02-1.20410E+03-3.00022E+03-7.76400E-03 1.07758E-03-3.02737E+02
 -1       111-9.14999E+02-1.10046E+03-2.73087E+03-2.77578E-03 8.24202E-03-3.23136E+02
 -1       112-9.15011E+02-1.10044E+03-2.73081E+03-2.77578E-03 8.24203E-03-3.23120E+02
 -1       113-7.89555E+02-9.25206E+02-2.27871E+03 5.70948E-03 7.47869E-03-3.18501E+02
 -1       114-7.89575E+02-9.25228E+02-2.27876E+03 5.70948E-03 7.47869E-03-3.18606E+02
 -1       115-6.20141E+02-6.90883E+02-1.67405E+03-1.34770E-02 4.83729E-04-2.94219E+02
 -1       116-6.20000E+02-6.90825E+02-1.67400E+03-1.34770E-02 4.83734E-04-2.94257E+02
 -1       117-4.19845E+02-4.22850E+02-9.86416E+02 4.46953E-03 5.41314E-03-2.43193E+02
 -1       118-4.20030E+02-4.22923E+02-9.86474E+02 4.46953E-03 5.41314E-03-2.43150E+02
 -1       119-2.40533E+02-1.87218E+02-3.82888E+02 3.42901E-03 2.53505E-03-1.69095E+02
 -1       120-2.40424E+02-1.87191E+02-3.82907E+02 3.42901E-03 2.53505E-03-1.69122E+02
 -1       121-7.57606E+01-2.42043E+01-4.88855E+00 9.77288E-03-3.54435E-03-8.10235E+01
 -1       122-7.57412E+01-2.42289E+01-4.98975E+00 9.77289E-03-3.54435E-03-8.10629E+01
 -1       123-1.60685E+02-3.20019E+01 5.41944E+01-7.28467E-03-1.03235E-02-8.69774E+01
 -1       124-1.60410E+02-3.19073E+01 5.42345E+01-7.28468E-03-1.03235E-02-8.69484E+01
 -1       125 4.05070E+02 2.16301E+02 3.16852E+02-3.56079E-04-1.02091E-02-1.94961E+02
 -1       126 4.04736E+02 2.16151E+02 3.16684E+02-3.56082E-04-1.02091E-02-1.94821E+02
 -3
    1PSTEP                       115          29           3          
  100CL  129 4.90000E-01         126                     1   29           1
 -4  TOSTRAIN    6    1
 -5  EXX         1    4    1    1
 -5  EYY         1    4    2    2
 -5  EZZ         1    4    3    3
 -5  EXY         1    4    1    2
 -5  EYZ         1    4    2    3
 -5  EZX         1    4    3    1
 -1         1-1.58817E-04-2.27189E-16-4.18361E-02 2.22943E-10-2.82698E-13 1.72830E-02
 -1         2-1.57931E-04-1.55877E-16-4.51487E-04 6.51052E-11-2.30678E-13 1.25652E-02
 -1         3-4.99521E-04 7.40056E-16-1.03402E-04 2.47972E-08 9.79233E-09 3.01968E-03
 -1         4 1.02488E-02 6.82359E-16-3.92043E-02-9.83132E-09 2.79944E-08 4.67754E-03
 -1         5-1.58815E-04-2.27189E-16-4.18357E-02 2.22941E-10-2.82698E-13 1.72830E-02
 -1         6-1.57929E-04-1.55877E-16-4.51375E-04 6.51049E-11-2.30678E-13 1.25654E-02
 -1         7-4.99522E-04 7.40056E-16-1.03307E-04 2.47972E-08 9.79233E-09 3.01991E-03
 -1         8 1.02484E-02 6.82359E-16-3.92039E-02-9.83131E-09 2.79944E-08 4.67778E-03
 -1         9-5.86733E-04 5.34845E-15 3.59608E-04 5.25727E-08 1.77941E-08 3.84159E-03
 -1        10 6.12733E-03 8.85028E-15-3.22371E-02 4.09019E-08 5.76825E-08 2.53985E-03
 -1        11-5.86738E-04 5.34845E-15 3.59643E-04 5.25727E-08 1.77941E-08 3.84170E-03
 -1        12 6.12719E-03 8.85028E-15-3.22369E-02 4.09019E-08 5.76825E-08 2.54014E-03
 -1        13-4.93370E-04-2.73584E-16 5.92407E-04 8.83745E-09 1.79519E-08 3.46338E-03
 -1        14 5.00765E-03 7.28754E-15-2.41594E-02 1.17260E-09 6.60581E-08 2.77457E-03
 -1        15-4.93372E-04-2.73584E-16 5.92339E-04 8.83745E-09 1.79519E-08 3.46329E-03
 -1        16 5.00756E-03 7.28754E-15-2.41596E-02 1.17264E-09 6.60581E-08 2.77459E-03
 -1        17-4.79840E-04 2.03600E-15 8.19549E-04-3.54553E-08 7.08419E-09 3.18649E-03
 -1        18 3.40684E-03 5.04844E-15-1.69429E-02-5.08386E-08 2.06801E-08 2.44680E-03
 -1        19-4.79950E-04 2.03600E-15 8.19447E-04-3.54553E-08 7.08419E-09 3.18642E-03
 -1        20 3.40666E-03 5.04844E-15-1.69433E-02-5.08386E-08 2.06801E-08 2.44675E-03
 -1        21-5.00088E-04-3.39444E-16 1.02823E-03-7.42014E-09 4.26104E-10 2.75894E-03
 -1        22 2.03822E-03 3.24372E-15-1.04720E-02-4.42355E-08-3.60083E-09 2.12681E-03
 -1        23-5.00323E-04-3.39444E-16 1.02817E-03-7.42013E-09 4.26102E-10 2.75901E-03
 -1        24 2.03778E-03 3.24372E-15-1.04721E-02-4.42355E-08-3.60084E-09 2.12689E-03
 -1        25-5.47114E-04-1.67933E-17 1.21619E-03 1.01059E-08-2.09104E-09 2.33435E-03
 -1        26 8.38023E-04 8.73059E-17-4.93864E-03-1.52640E-08 1.07139E-09 1.79239E-03
 -1        27-5.47268E-04-1.67933E-17 1.21615E-03 1.01059E-08-2.09104E-09 2.33437E-03
 -1        28 8.37718E-04 8.73059E-17-4.93867E-03-1.52640E-08 1.07139E-09 1.79247E-03
 -1        29-5.99110E-04 2.38263E-16 1.38566E-03-1.08605E-08-7.05515E-09 1.95841E-03
 -1        30-1.81406E-04 1.19241E-15-2.51733E-04-2.45316E-08-8.49305E-09 1.49902E-03
 -1        31-5.99183E-04 2.38263E-16 1.38562E-03-1.08605E-08-7.05514E-09 1.95833E-03
 -1        32-1.81570E-04 1.19241E-15-2.51914E-04-2.45316E-08-8.49304E-09 1.49896E-03
 -1        33-6.67846E-04-5.33491E-16 1.54471E-03-9.04584E-09-8.69956E-09 1.57959E-03
 -1        34-1.05999E-03 3.04510E-15 3.65865E-03-3.05973E-08-2.91770E-08 1.20226E-03
 -1        35-6.68014E-04-5.33491E-16 1.54478E-03-9.04584E-09-8.69956E-09 1.57959E-03
 -1        36-1.06025E-03 3.04510E-15 3.65858E-03-3.05973E-08-2.91770E-08 1.20222E-03
 -1        37-7.39820E-04 2.87266E-15 1.67997E-03 4.44896E-08 4.37589E-09 1.14151E-03
 -1        38-1.76216E-03-9.03067E-16 6.69205E-03 9.83126E-12-2.04364E-08 8.68252E-04
 -1        39-7.40130E-04 2.87266E-15 1.68019E-03 4.44896E-08 4.37591E-09 1.14155E-03
 -1        40-1.76269E-03-9.03067E-16 6.69250E-03 9.83505E-12-2.04365E-08 8.68233E-04
 -1        41-7.76939E-04 7.39361E-15 1.76073E-03 5.80838E-08 2.65906E-08 6.62259E-04
 -1        42-2.20809E-03 3.09913E-15 8.67268E-03 1.28694E-08 4.66113E-08 5.09668E-04
 -1        43-7.77157E-04 7.39361E-15 1.76082E-03 5.80838E-08 2.65906E-08 6.62329E-04
 -1        44-2.20863E-03 3.09913E-15 8.67316E-03 1.28694E-08 4.66113E-08 5.09819E-04
 -1        45-7.85209E-04 3.63312E-16 1.78334E-03 2.20270E-08 1.95171E-08 2.12224E-04
 -1        46-2.39471E-03 5.35701E-15 9.56346E-03 1.09997E-08 5.95736E-08 1.69677E-04
 -1        47-7.85278E-04 3.63312E-16 1.78321E-03 2.20270E-08 1.95171E-08 2.12206E-04
 -1        48-2.39485E-03 5.35701E-15 9.56318E-03 1.09997E-08 5.95736E-08 1.69705E-04
 -1        49-7.69418E-04 1.77441E-15 1.75147E-03-3.45486E-08 4.19966E-09-1.39094E-04
 -1        50-2.37216E-03 5.06916E-15 9.53764E-03-5.71610E-08-9.56311E-11-9.56052E-05
 -1        51-7.69609E-04 1.77441E-15 1.75140E-03-3.45486E-08 4.19967E-09-1.39222E-04
 -1        52-2.37244E-03 5.06916E-15 9.53721E-03-5.71610E-08-9.56094E-11-9.58257E-05
 -1        53-7.11185E-04 2.84421E-16 1.65652E-03-2.01521E-08 9.38116E-09-3.82065E-04
 -1        54-2.17771E-03 4.97116E-15 8.83422E-03-5.34823E-08-1.18025E-08-2.74970E-04
 -1        55-7.11433E-04 2.84421E-16 1.65642E-03-2.01521E-08 9.38115E-09-3.82007E-04
 -1        56-2.17811E-03 4.97116E-15 8.83402E-03-5.34823E-08-1.18025E-08-2.74930E-04
 -1        57-6.36842E-04 2.22319E-16 1.51142E-03 2.21945E-08-1.14385E-08-5.67778E-04
 -1        58-1.87662E-03 6.54714E-16 7.62938E-03-1.75482E-09-3.23062E-08-4.13102E-04
 -1        59-6.36946E-04 2.22319E-16 1.51127E-03 2.21945E-08-1.14385E-08-5.67950E-04
 -1        60-1.87691E-03 6.54714E-16 7.62947E-03-1.75481E-09-3.23062E-08-4.13219E-04
 -1        61-5.46513E-04 6.27095E-16 1.33375E-03-1.90402E-08-1.62686E-08-7.00902E-04
 -1        62-1.48345E-03 4.13727E-15 6.03896E-03-5.08499E-08 2.97801E-09-5.12445E-04
 -1        63-5.46556E-04 6.27095E-16 1.33386E-03-1.90402E-08-1.62685E-08-7.01010E-04
 -1        64-1.48383E-03 4.13727E-15 6.03901E-03-5.08499E-08 2.97803E-09-5.12497E-04
 -1        65-4.34907E-04-1.56752E-16 1.12197E-03-1.99300E-08 8.02281E-09-7.24747E-04
 -1        66-1.02201E-03 6.55593E-15 4.24321E-03-5.80311E-08-2.20571E-08-5.29642E-04
 -1        67-4.35331E-04-1.56752E-16 1.12202E-03-1.99300E-08 8.02281E-09-7.24712E-04
 -1        68-1.02247E-03 6.55593E-15 4.24305E-03-5.80311E-08-2.20571E-08-5.29708E-04
 -1        69-3.25539E-04 1.35305E-15 8.89136E-04 3.34801E-08-8.00344E-09-5.77720E-04
 -1        70-5.84849E-04 5.90190E-17 2.59723E-03-1.29047E-08-2.46344E-08-4.27682E-04
 -1        71-3.25678E-04 1.35305E-15 8.89045E-04 3.34801E-08-8.00343E-09-5.77623E-04
 -1        72-5.85406E-04 5.90190E-17 2.59742E-03-1.29047E-08-2.46344E-08-4.27547E-04
 -1        73-2.25165E-04 4.19616E-15 6.66082E-04 4.64913E-08-7.22435E-09-3.47551E-04
 -1        74-3.38683E-04-7.90862E-17 1.36993E-03 2.01628E-08 9.91151E-09-1.71720E-04
 -1        75-2.25241E-04 4.19616E-15 6.66178E-04 4.64913E-08-7.22436E-09-3.47517E-04
 -1        76-3.38999E-04-7.90862E-17 1.37002E-03 2.01628E-08 9.91151E-09-1.71668E-04
 -1        77-1.29326E-04-5.58414E-16 3.86771E-04 2.65121E-08 7.90730E-09-1.34809E-04
 -1        78 9.53058E-05 4.97998E-16 7.84748E-04-2.99811E-08-9.23682E-09-2.44146E-04
 -1        79-1.29385E-04-5.58414E-16 3.86870E-04 2.65121E-08 7.90729E-09-1.35033E-04
 -1        80 9.46279E-05 4.97998E-16 7.84792E-04-2.99811E-08-9.23681E-09-2.44330E-04
 -1        81-2.08760E-05 3.35400E-15 2.12793E-04-5.47726E-08 9.27840E-09 7.45732E-05
 -1        82-7.79171E-04 1.31386E-16 6.97087E-04-6.81303E-09 1.73189E-08-2.43772E-04
 -1        83-2.09306E-05 3.35400E-15 2.12809E-04-5.47726E-08 9.27844E-09 7.42367E-05
 -1        84-7.78596E-04 1.31386E-16 6.97405E-04-6.81304E-09 1.73189E-08-2.43585E-04
 -1        85-1.57045E-04 2.74102E-17 4.25005E-02 1.45640E-11-1.27094E-13 1.85936E-02
 -1        86-1.12478E-02-5.83949E-16 3.99476E-02-1.01242E-08 4.72739E-09 4.71291E-03
 -1        87-1.57044E-04 2.74102E-17 4.25005E-02 1.45647E-11-1.27094E-13 1.85935E-02
 -1        88-1.12474E-02-5.83949E-16 3.99477E-02-1.01242E-08 4.72739E-09 4.71306E-03
 -1        89-7.30080E-03 2.80956E-15 3.33718E-02 4.09281E-08 9.74924E-09 2.52595E-03
 -1        90-7.30067E-03 2.80956E-15 3.33719E-02 4.09281E-08 9.74924E-09 2.52604E-03
 -1        91-5.99439E-03-3.51841E-16 2.57623E-02 1.34619E-09 9.51435E-09 2.73917E-03
 -1        92-5.99430E-03-3.51841E-16 2.57624E-02 1.34619E-09 9.51435E-09 2.73901E-03
 -1        93-4.36652E-03 3.21372E-15 1.88444E-02-3.21573E-08 2.89964E-08 2.44501E-03
 -1        94-4.36656E-03 3.21372E-15 1.88445E-02-3.21573E-08 2.89964E-08 2.44486E-03
 -1        95-3.03840E-03 3.17782E-16 1.26608E-02-4.96859E-09 1.84386E-08 2.14025E-03
 -1        96-3.03843E-03 3.17782E-16 1.26606E-02-4.96860E-09 1.84386E-08 2.14027E-03
 -1        97-1.93225E-03 1.20835E-16 7.42581E-03 1.04013E-08-8.94503E-09 1.81596E-03
 -1        98-1.93225E-03 1.20835E-16 7.42570E-03 1.04013E-08-8.94503E-09 1.81598E-03
 -1        99-1.01681E-03 8.00449E-17 3.04842E-03-1.23123E-08 1.20793E-10 1.52911E-03
 -1       100-1.01680E-03 8.00449E-17 3.04864E-03-1.23123E-08 1.20793E-10 1.52902E-03
 -1       101-2.75701E-04 4.25513E-16-5.62528E-04-2.66878E-09 2.70006E-08 1.23688E-03
 -1       102-2.75778E-04 4.25513E-16-5.62320E-04-2.66880E-09 2.70006E-08 1.23686E-03
 -1       103 2.82516E-04 6.79730E-15-3.34218E-03 5.16923E-08 3.44488E-08 8.95316E-04
 -1       104 2.82430E-04 6.79730E-15-3.34234E-03 5.16922E-08 3.44488E-08 8.95291E-04
 -1       105 6.54213E-04 4.28258E-15-5.15899E-03 4.93744E-08 4.64682E-10 5.21278E-04
 -1       106 6.54318E-04 4.28258E-15-5.15936E-03 4.93745E-08 4.64671E-10 5.21346E-04
 -1       107 8.24297E-04 1.11668E-15-6.00017E-03 2.25606E-08-2.75883E-08 1.68993E-04
 -1       108 8.24291E-04 1.11668E-15-6.00017E-03 2.25606E-08-2.75883E-08 1.69050E-04
 -1       109 8.33327E-04 6.81311E-16-6.03420E-03-2.55240E-08 1.88502E-10-1.11121E-04
 -1       110 8.33218E-04 6.81311E-16-6.03388E-03-2.55239E-08 1.88508E-10-1.11202E-04
 -1       111 7.55335E-04 1.28333E-15-5.50972E-03-1.22312E-08 2.56841E-08-3.07714E-04
 -1       112 7.55239E-04 1.28333E-15-5.50956E-03-1.22312E-08 2.56841E-08-3.07689E-04
 -1       113 6.02942E-04 5.79254E-16-4.60212E-03 1.56798E-08 2.63897E-08-4.57647E-04
 -1       114 6.03020E-04 5.79254E-16-4.60229E-03 1.56798E-08 2.63897E-08-4.57968E-04
 -1       115 3.90422E-04 2.35668E-15-3.37863E-03-4.37492E-08-3.29039E-09-5.63035E-04
 -1       116 3.90719E-04 2.35668E-15-3.37868E-03-4.37492E-08-3.29039E-09-5.63122E-04
 -1       117 1.52196E-04 2.05567E-16-1.98241E-03 1.26021E-08 1.90977E-08-5.81058E-04
 -1       118 1.51806E-04 2.05567E-16-1.98234E-03 1.26021E-08 1.90977E-08-5.80963E-04
 -1       119-6.62290E-05 5.19656E-17-7.44628E-04 1.02473E-08 9.35540E-09-4.90952E-04
 -1       120-6.59501E-05 5.19656E-17-7.44792E-04 1.02473E-08 9.35540E-09-4.90996E-04
 -1       121-1.11647E-04 1.58310E-15 6.72731E-06 3.27801E-08-8.19515E-09-2.81394E-04
 -1       122-1.11483E-04 1.58310E-15 6.45640E-06 3.27801E-08-8.19516E-09-2.81479E-04
 -1       123-3.53957E-04 1.71254E-15 2.15188E-04-2.01405E-08-3.57929E-08-3.47833E-04
 -1       124-3.53397E-04 1.71254E-15 2.15039E-04-2.01405E-08-3.57929E-08-3.47662E-04
 -1       125 7.37419E-04 9.48091E-16 2.00566E-04 2.21771E-09-3.31012E-08-5.90068E-04
 -1       126 7.36735E-04 9.48091E-16 2.00598E-04 2.21770E-09-3.31012E-08-5.89679E-04
 -3
    1PSTEP                       116          29           3          
  100CL  129 4.90000E-01         126                     1   29           1
 -4  ERROR       1    1
 -5  STR(%)      1    1    0    0
 -1         1 6.15259E+01
 -1         2 6.47569E+01
 -1         3 6.47569E+01
 -1         4 6.15531E+01
 -1         5 6.15259E+01
 -1         6 6.47569E+01
 -1         7 6.47569E+01
 -1         8 6.15531E+01
 -1         9 6.30463E+01
 -1        10 6.30463E+01
 -1        11 6.30463E+01
 -1        12 6.30463E+01
 -1        13 6.40749E+01
 -1        14 6.40749E+01
 -1        15 6.40749E+01
 -1        16 6.40749E+01
 -1        17 6.50507E+01
 -1        18 6.50507E+01
 -1        19 6.50507E+01
 -1        20 6.50507E+01
 -1        21 6.50507E+01
 -1        22 6.50507E+01
 -1        23 6.50507E+01
 -1        24 6.50507E+01
 -1        25 7.74000E+01
 -1        26 7.74000E+01
 -1        27 7.74000E+01
 -1        28 7.74000E+01
 -1        29 7.74000E+01
 -1        30 7.74000E+01
 -1        31 7.74000E+01
 -1        32 7.74000E+01
 -1        33 6.77602E+01
 -1        34 3.52022E+01
 -1        35 6.77602E+01
 -1        36 3.52022E+01
 -1        37 8.53718E+01
 -1        38 4.47086E+01
 -1        39 8.53718E+01
 -1        40 4.47086E+01
 -1        41 8.53718E+01
 -1        42 4.66339E+01
 -1        43 8.53718E+01
 -1        44 4.66339E+01
 -1        45 8.20955E+01
 -1        46 4.66339E+01
 -1        47 8.20955E+01
 -1        48 4.66339E+01
 -1        49 8.02712E+01
 -1        50 4.66925E+01
 -1        51 8.02712E+01
 -1        52 4.66925E+01
 -1        53 8.42526E+01
 -1        54 4.66925E+01
 -1        55 8.42526E+01
 -1        56 4.66925E+01
 -1        57 8.55699E+01
 -1        58 4.64887E+01
 -1        59 8.55699E+01
 -1        60 4.64887E+01
 -1        61 8.63659E+01
 -1        62 4.52847E+01
 -1        63 8.63659E+01
 -1        64 4.52847E+01
 -1        65 8.63659E+01
 -1        66 4.19314E+01
 -1        67 8.63659E+01
 -1        68 4.19314E+01
 -1        69 7.88740E+01
 -1        70 3.50990E+01
 -1        71 7.88740E+01
 -1        72 3.50990E+01
 -1        73 6.01384E+01
 -1        74 2.62978E+01
 -1        75 6.01384E+01
 -1        76 2.62978E+01
 -1        77 6.86304E+01
 -1        78 6.86304E+01
 -1        79 6.86304E+01
 -1        80 6.86304E+01
 -1        81 6.86304E+01
 -1        82 6.86304E+01
 -1        83 6.86304E+01
 -1        84 6.86304E+01
 -1        85 6.47569E+01
 -1        86 6.47569E+01
 -1        87 6.47569E+01
 -1        88 6.47569E+01
 -1        89 6.23205E+01
 -1        90 6.23205E+01
 -1        91 6.17666E+01
 -1        92 6.17666E+01
 -1        93 5.99601E+01
 -1        94 5.99601E+01
 -1        95 5.68055E+01
 -1        96 5.68055E+01
 -1        97 5.03069E+01
 -1        98 5.03069E+01
 -1        99 3.32986E+01
 -1       100 3.32986E+01
 -1       101 6.77602E+01
 -1       102 6.77602E+01
 -1       103 8.53718E+01
 -1       104 8.53718E+01
 -1       105 8.53718E+01
 -1       106 8.53718E+01
 -1       107 8.20955E+01
 -1       108 8.20955E+01
 -1       109 8.02712E+01
 -1       110 8.02712E+01
 -1       111 8.42526E+01
 -1       112 8.42526E+01
 -1       113 8.55699E+01
 -1       114 8.55699E+01
 -1       115 8.63659E+01
 -1       116 8.63659E+01
 -1       117 8.63659E+01
 -1       118 8.63659E+01
 -1       119 7.88740E+01
 -1       120 7.88740E+01
 -1       121 6.01384E+01
 -1       122 6.01384E+01
 -1       123 5.58457E+01
 -1       124 5.58457E+01
 -1       125 5.58457E+01
 -1       126 5.58457E+01
 -3
    1PSTEP                       117          30           3          
  100CL  130 5.00000E-01         126                     1   30           1
 -4  DISP        4    1
 -5  D1          1    2    1    0
 -5  D2          1    2    2    0
 -5  D3          1    2    3    0
 -5  ALL         1    2    0    0    1ALL
 -1         1 0.00000E+00 0.00000E+00 0.00000E+00
 -1         2 0.00000E+00 0.00000E+00 0.00000E+00
 -1         3 1.25956E-03 0.00000E+00-4.49371E-05
 -1         4 1.73963E-03 0.00000E+00-2.18759E-03
 -1         5 0.00000E+00 0.00000E+00 0.00000E+00
 -1         6 0.00000E+00 0.00000E+00 0.00000E+00
 -1         7 1.25955E-03 0.00000E+00-4.49203E-05
 -1         8 1.73964E-03 0.00000E+00-2.18759E-03
 -1         9 4.83911E-03 0.00000E+00-1.69745E-04
 -1        10 4.99584E-03 0.00000E+00-4.18036E-03
 -1        11 4.83909E-03 0.00000E+00-1.69720E-04
 -1        12 4.99584E-03 0.00000E+00-4.18036E-03
 -1        13 9.97324E-03 0.00000E+00-4.16193E-04
 -1        14 9.93521E-03 0.00000E+00-5.86897E-03
 -1        15 9.97324E-03 0.00000E+00-4.16167E-04
 -1        16 9.93523E-03 0.00000E+00-5.86897E-03
 -1        17 1.63453E-02 0.00000E+00-7.88780E-04
 -1        18 1.60964E-02 0.00000E+00-7.32216E-03
 -1        19 1.63453E-02 0.00000E+00-7.88755E-04
 -1        20 1.60964E-02 0.00000E+00-7.32215E-03
 -1        21 2.36035E-02 0.00000E+00-1.26678E-03
 -1        22 2.31803E-02 0.00000E+00-8.55664E-03
 -1        23 2.36035E-02 0.00000E+00-1.26677E-03
 -1        24 2.31803E-02 0.00000E+00-8.55663E-03
 -1        25 3.14474E-02 0.00000E+00-1.82050E-03
 -1        26 3.08897E-02 0.00000E+00-9.57875E-03
 -1        27 3.14474E-02 0.00000E+00-1.82051E-03
 -1        28 3.08898E-02 0.00000E+00-9.57876E-03
 -1        29 3.96015E-02 0.00000E+00-2.41261E-03
 -1        30 3.89538E-02 0.00000E+00-1.03883E-02
 -1        31 3.96015E-02 0.00000E+00-2.41262E-03
 -1        32 3.89539E-02 0.00000E+00-1.03883E-02
 -1        33 4.78283E-02 0.00000E+00-3.00712E-03
 -1        34 4.71341E-02 0.00000E+00-1.09903E-02
 -1        35 4.78283E-02 0.00000E+00-3.00713E-03
 -1        36 4.71342E-02 0.00000E+00-1.09903E-02
 -1        37 5.59327E-02 0.00000E+00-3.57419E-03
 -1        38 5.52296E-02 0.00000E+00-1.13996E-02
 -1        39 5.59328E-02 0.00000E+00-3.57421E-03
 -1        40 5.52296E-02 0.00000E+00-1.13996E-02
 -1        41 6.37685E-02 0.00000E+00-4.09216E-03
 -1        42 6.30846E-02 0.00000E+00-1.16426E-02
 -1        43 6.37685E-02 0.00000E+00-4.09217E-03
 -1        44 6.30847E-02 0.00000E+00-1.16426E-02
 -1        45 7.12393E-02 0.00000E+00-4.54966E-03
 -1        46 7.05952E-02 0.00000E+00-1.17557E-02
 -1        47 7.12393E-02 0.00000E+00-4.54967E-03
 -1        48 7.05952E-02 0.00000E+00-1.17557E-02
 -1        49 7.82986E-02 0.00000E+00-4.94631E-03
 -1        50 7.77072E-02 0.00000E+00-1.17837E-02
 -1        51 7.82986E-02 0.00000E+00-4.94630E-03
 -1        52 7.77072E-02 0.00000E+00-1.17837E-02
 -1        53 8.49517E-02 0.00000E+00-5.28991E-03
 -1        54 8.44171E-02 0.00000E+00-1.17747E-02
 -1        55 8.49517E-02 0.00000E+00-5.28990E-03
 -1        56 8.44171E-02 0.00000E+00-1.17746E-02
 -1        57 9.12419E-02 0.00000E+00-5.59200E-03
 -1        58 9.07623E-02 0.00000E+00-1.17694E-02
 -1        59 9.12419E-02 0.00000E+00-5.59198E-03
 -1        60 9.07623E-02 0.00000E+00-1.17694E-02
 -1        61 9.72378E-02 0.00000E+00-5.86663E-03
 -1        62 9.68078E-02 0.00000E+00-1.17976E-02
 -1        63 9.72378E-02 0.00000E+00-5.86660E-03
 -1        64 9.68079E-02 0.00000E+00-1.17976E-02
 -1        65 1.03015E-01 0.00000E+00-6.12679E-03
 -1        66 1.02625E-01 0.00000E+00-1.18756E-02
 -1        67 1.03015E-01 0.00000E+00-6.12679E-03
 -1        68 1.02625E-01 0.00000E+00-1.18756E-02
 -1        69 1.08643E-01 0.00000E+00-6.38221E-03
 -1        70 1.08287E-01 0.00000E+00-1.20101E-02
 -1        71 1.08643E-01 0.00000E+00-6.38221E-03
 -1        72 1.08287E-01 0.00000E+00-1.20101E-02
 -1        73 1.14187E-01 0.00000E+00-6.64202E-03
 -1        74 1.13852E-01 0.00000E+00-1.22007E-02
 -1        75 1.14187E-01 0.00000E+00-6.64203E-03
 -1        76 1.13852E-01 0.00000E+00-1.22008E-02
 -1        77 1.19695E-01 0.00000E+00-6.91272E-03
 -1        78 1.19389E-01 0.00000E+00-1.24460E-02
 -1        79 1.19695E-01 0.00000E+00-6.91275E-03
 -1        80 1.19389E-01 0.00000E+00-1.24460E-02
 -1        81 1.25214E-01 0.00000E+00-7.20555E-03
 -1        82 1.24870E-01 0.00000E+00-1.27068E-02
 -1        83 1.25214E-01 0.00000E+00-7.20559E-03
 -1        84 1.24870E-01 0.00000E+00-1.27069E-02
 -1        85 0.00000E+00 0.00000E+00 0.00000E+00
 -1        86 1.85979E-03 0.00000E+00 2.05258E-03
 -1        87 0.00000E+00 0.00000E+00 0.00000E+00
 -1        88 1.85980E-03 0.00000E+00 2.05259E-03
 -1        89 5.35619E-03 0.00000E+00 3.77493E-03
 -1        90 5.35616E-03 0.00000E+00 3.77495E-03
 -1        91 1.05668E-02 0.00000E+00 4.96729E-03
 -1        92 1.05668E-02 0.00000E+00 4.96731E-03
 -1        93 1.69964E-02 0.00000E+00 5.68789E-03
 -1        94 1.69964E-02 0.00000E+00 5.68790E-03
 -1        95 2.43003E-02 0.00000E+00 5.98207E-03
 -1        96 2.43003E-02 0.00000E+00 5.98208E-03
 -1        97 3.21628E-02 0.00000E+00 5.91486E-03
 -1        98 3.21628E-02 0.00000E+00 5.91486E-03
 -1        99 4.03073E-02 0.00000E+00 5.55679E-03
 -1       100 4.03073E-02 0.00000E+00 5.55679E-03
 -1       101 4.84987E-02 0.00000E+00 4.98314E-03
 -1       102 4.84987E-02 0.00000E+00 4.98314E-03
 -1       103 5.65506E-02 0.00000E+00 4.26814E-03
 -1       104 5.65506E-02 0.00000E+00 4.26814E-03
 -1       105 6.43257E-02 0.00000E+00 3.48029E-03
 -1       106 6.43257E-02 0.00000E+00 3.48029E-03
 -1       107 7.17354E-02 0.00000E+00 2.67846E-03
 -1       108 7.17354E-02 0.00000E+00 2.67847E-03
 -1       109 7.87399E-02 0.00000E+00 1.91053E-03
 -1       110 7.87399E-02 0.00000E+00 1.91055E-03
 -1       111 8.53497E-02 0.00000E+00 1.20980E-03
 -1       112 8.53497E-02 0.00000E+00 1.20983E-03
 -1       113 9.16079E-02 0.00000E+00 5.94406E-04
 -1       114 9.16079E-02 0.00000E+00 5.94434E-04
 -1       115 9.75821E-02 0.00000E+00 6.85066E-05
 -1       116 9.75821E-02 0.00000E+00 6.85343E-05
 -1       117 1.03345E-01 0.00000E+00-3.76455E-04
 -1       118 1.03345E-01 0.00000E+00-3.76440E-04
 -1       119 1.08967E-01 0.00000E+00-7.54399E-04
 -1       120 1.08967E-01 0.00000E+00-7.54394E-04
 -1       121 1.14504E-01 0.00000E+00-1.08210E-03
 -1       122 1.14504E-01 0.00000E+00-1.08210E-03
 -1       123 1.20020E-01 0.00000E+00-1.38300E-03
 -1       124 1.20020E-01 0.00000E+00-1.38302E-03
 -1       125 1.25486E-01 0.00000E+00-1.67368E-03
 -1       126 1.25486E-01 0.00000E+00-1.67369E-03
 -3
    1PSTEP                       118          30           3          
  100CL  130 5.00000E-01         126                     1   30           1
 -4  STRESS      6    1
 -5  SXX         1    4    1    1
 -5  SYY         1    4    2    2
 -5  SZZ         1    4    3    3
 -5  SXY         1    4    1    2
 -5  SYZ         1    4    2    3
 -5  SZX         1    4    3    1
 -1         1-9.88662E+03-1.01789E+04-2.20843E+04-1.23819E-05 4.26745E-05 4.63324E+03
 -1         2-9.31594E+00-1.34054E+02-6.84187E+02 5.99302E-05-2.17353E-05 3.85648E+03
 -1         3 7.23558E+01-1.42271E+02-6.26443E+02-2.60802E-03 8.56592E-03 8.97838E+02
 -1         4-3.50513E+03-6.90344E+03-1.83104E+04 6.18334E-03 1.47152E-03 6.90840E+02
 -1         5-9.88660E+03-1.01789E+04-2.20843E+04-1.23827E-05 4.26747E-05 4.63327E+03
 -1         6-9.24159E+00-1.33977E+02-6.84008E+02 5.99303E-05-2.17354E-05 3.85647E+03
 -1         7 7.24475E+01-1.42201E+02-6.26300E+02-2.60802E-03 8.56592E-03 8.97814E+02
 -1         8-3.50494E+03-6.90336E+03-1.83104E+04 6.18334E-03 1.47152E-03 6.90801E+02
 -1         9 9.91220E+01-5.61131E+01-4.03012E+02-8.14217E-03 1.25230E-02 1.13891E+03
 -1        10-4.18298E+03-6.23717E+03-1.57221E+04 3.31864E-04-6.57074E-04-2.15009E+02
 -1        11 9.93183E+01-5.60163E+01-4.02884E+02-8.14218E-03 1.25230E-02 1.13890E+03
 -1        12-4.18279E+03-6.23710E+03-1.57220E+04 3.31864E-04-6.57075E-04-2.15076E+02
 -1        13 1.83801E+02 1.97626E+01-1.75229E+02 7.72518E-04 1.32496E-02 1.00905E+03
 -1        14-2.90298E+03-4.59499E+03-1.19175E+04 1.03092E-02-2.54647E-03-2.09387E+02
 -1        15 1.84023E+02 1.98615E+01-1.75120E+02 7.72518E-04 1.32496E-02 1.00904E+03
 -1        16-2.90270E+03-4.59484E+03-1.19173E+04 1.03092E-02-2.54648E-03-2.09420E+02
 -1        17 2.17784E+02 8.17195E+01 2.54956E+01 6.21430E-03 1.27794E-02 9.45533E+02
 -1        18-2.12229E+03-3.31041E+03-8.65419E+03 2.18411E-02 5.83078E-03-1.64829E+02
 -1        19 2.18088E+02 8.18325E+01 2.55682E+01 6.21430E-03 1.27794E-02 9.45509E+02
 -1        20-2.12190E+03-3.31022E+03-8.65395E+03 2.18412E-02 5.83078E-03-1.64845E+02
 -1        21 2.34277E+02 1.34839E+02 2.05718E+02-1.98179E-03 6.37592E-03 8.73110E+02
 -1        22-1.35213E+03-2.13298E+03-5.64817E+03 2.14119E-02 4.85627E-03 7.36658E+00
 -1        23 2.34637E+02 1.34957E+02 2.05755E+02-1.98179E-03 6.37592E-03 8.73065E+02
 -1        24-1.35168E+03-2.13280E+03-5.64803E+03 2.14119E-02 4.85626E-03 7.31863E+00
 -1        25 2.28176E+02 1.75406E+02 3.57520E+02-1.43072E-03-1.02764E-03 7.96888E+02
 -1        26-6.86220E+02-1.10385E+03-2.96076E+03 1.61563E-02-1.80907E-03 2.16705E+02
 -1        27 2.28438E+02 1.75499E+02 3.57565E+02-1.43072E-03-1.02764E-03 7.96834E+02
 -1        28-6.85938E+02-1.10377E+03-2.96074E+03 1.61563E-02-1.80908E-03 2.16631E+02
 -1        29 2.00402E+02 2.05289E+02 4.89101E+02-9.48312E-03-2.23408E-03 7.04597E+02
 -1        30-1.23711E+02-2.24499E+02-6.17905E+02 5.34632E-03-8.30032E-03 4.15798E+02
 -1        31 2.00637E+02 2.05380E+02 4.89170E+02-9.48313E-03-2.23408E-03 7.04549E+02
 -1        32-1.23453E+02-2.24413E+02-6.17878E+02 5.34633E-03-8.30032E-03 4.15734E+02
 -1        33 1.64456E+02 2.28814E+02 6.03537E+02-2.52803E-03-6.43179E-03 5.95120E+02
 -1        34 3.28709E+02 4.93331E+02 1.32908E+03 1.33072E-02-1.38394E-02 5.66096E+02
 -1        35 1.64772E+02 2.28942E+02 6.03645E+02-2.52803E-03-6.43179E-03 5.95102E+02
 -1        36 3.29074E+02 4.93496E+02 1.32927E+03 1.33072E-02-1.38394E-02 5.66079E+02
 -1        37 1.21194E+02 2.46091E+02 7.02422E+02 4.60556E-03-7.67620E-03 4.71913E+02
 -1        38 6.56020E+02 1.03489E+03 2.82858E+03 1.87615E-02-7.37063E-03 6.45032E+02
 -1        39 1.21480E+02 2.46218E+02 7.02562E+02 4.60556E-03-7.67620E-03 4.71911E+02
 -1        40 6.56348E+02 1.03504E+03 2.82877E+03 1.87615E-02-7.37063E-03 6.45044E+02
 -1        41 7.17238E+01 2.56942E+02 7.85770E+02 5.15520E-03-5.15892E-03 3.40864E+02
 -1        42 8.51556E+02 1.39342E+03 3.85056E+03 1.96549E-02-8.00423E-03 6.48144E+02
 -1        43 7.19748E+01 2.57068E+02 7.85938E+02 5.15520E-03-5.15893E-03 3.40840E+02
 -1        44 8.51866E+02 1.39356E+03 3.85072E+03 1.96549E-02-8.00423E-03 6.48114E+02
 -1        45 2.84794E+01 2.62501E+02 8.45985E+02 6.65902E-03-1.79255E-03 2.08408E+02
 -1        46 9.33257E+02 1.57594E+03 4.39099E+03 1.81542E-02-5.42517E-03 5.85460E+02
 -1        47 2.87354E+01 2.62641E+02 8.46195E+02 6.65902E-03-1.79256E-03 2.08336E+02
 -1        48 9.33565E+02 1.57612E+03 4.39130E+03 1.81542E-02-5.42519E-03 5.85401E+02
 -1        49-4.74412E-01 2.61934E+02 8.72445E+02-5.80900E-03 4.89396E-03 8.77988E+01
 -1        50 9.22600E+02 1.59575E+03 4.46862E+03 7.93171E-03 1.14369E-02 4.77973E+02
 -1        51-2.18535E-01 2.62064E+02 8.72620E+02-5.80901E-03 4.89396E-03 8.77560E+01
 -1        52 9.22923E+02 1.59592E+03 4.46886E+03 7.93172E-03 1.14369E-02 4.77977E+02
 -1        53-2.19373E+01 2.52020E+02 8.61164E+02-7.56331E-03 6.07440E-03-7.11003E+00
 -1        54 8.31488E+02 1.47777E+03 4.15636E+03 8.41510E-03 9.01366E-03 3.52822E+02
 -1        55-2.16676E+01 2.52153E+02 8.61338E+02-7.56332E-03 6.07440E-03-7.14176E+00
 -1        56 8.31823E+02 1.47792E+03 4.15652E+03 8.41511E-03 9.01366E-03 3.52815E+02
 -1        57-2.95351E+01 2.35864E+02 8.15576E+02-9.29554E-03 1.10984E-02-6.89006E+01
 -1        58 6.97981E+02 1.27061E+03 3.58356E+03 3.73072E-03 1.46709E-02 2.36238E+02
 -1        59-2.92434E+01 2.36002E+02 8.15745E+02-9.29555E-03 1.10984E-02-6.88777E+01
 -1        60 6.98249E+02 1.27072E+03 3.58366E+03 3.73073E-03 1.46709E-02 2.36270E+02
 -1        61-2.52054E+01 2.13574E+02 7.37563E+02 2.62708E-03 1.11052E-02-9.96141E+01
 -1        62 5.54190E+02 1.02233E+03 2.88379E+03 1.54683E-02 7.58421E-03 1.41023E+02
 -1        63-2.50932E+01 2.13597E+02 7.37527E+02 2.62708E-03 1.11051E-02-9.95981E+01
 -1        64 5.54429E+02 1.02240E+03 2.88381E+03 1.54683E-02 7.58421E-03 1.41029E+02
 -1        65-2.08375E+01 1.84394E+02 6.36283E+02 5.52433E-03 4.20607E-04-1.07478E+02
 -1        66 4.04135E+02 7.63250E+02 2.15729E+03 1.73360E-02 3.62305E-03 7.26257E+01
 -1        67-2.06288E+01 1.84456E+02 6.36280E+02 5.52433E-03 4.20605E-04-1.07530E+02
 -1        68 4.04352E+02 7.63328E+02 2.15733E+03 1.73360E-02 3.62305E-03 7.26259E+01
 -1        69-1.32062E+01 1.51807E+02 5.20021E+02-6.21127E-03-2.24349E-04-9.89273E+01
 -1        70 2.80813E+02 5.26878E+02 1.48387E+03 1.25631E-02 2.59963E-03 2.31077E+01
 -1        71-1.29972E+01 1.51883E+02 5.20064E+02-6.21127E-03-2.24347E-04-9.89589E+01
 -1        72 2.81098E+02 5.26949E+02 1.48382E+03 1.25632E-02 2.59962E-03 2.30674E+01
 -1        73-3.90443E+00 1.15629E+02 3.89931E+02-1.80327E-03-4.99598E-03-8.22737E+01
 -1        74 1.44044E+02 3.02931E+02 8.68813E+02 4.70137E-03-1.60116E-02 1.60444E+01
 -1        75-3.82164E+00 1.15634E+02 3.89866E+02-1.80327E-03-4.99597E-03-8.23395E+01
 -1        76 1.44136E+02 3.02946E+02 8.68767E+02 4.70137E-03-1.60116E-02 1.59711E+01
 -1        77 2.31011E-01 6.60441E+01 2.20073E+02-8.81290E-03-1.38248E-02-4.38892E+01
 -1        78 2.29362E+02 2.39965E+02 5.71729E+02 1.28734E-02-9.74580E-03-5.68824E+01
 -1        79 2.98986E-01 6.60376E+01 2.19983E+02-8.81290E-03-1.38248E-02-4.38664E+01
 -1        80 2.29774E+02 2.40126E+02 5.71852E+02 1.28734E-02-9.74580E-03-5.69036E+01
 -1        81 3.23886E+01 4.62755E+01 1.22307E+02 1.03709E-02-1.91608E-02 1.35735E+01
 -1        82-2.62701E+02-7.25888E-01 2.60958E+02-5.16290E-03-2.14417E-02-3.29589E+01
 -1        83 3.24660E+01 4.62855E+01 1.22264E+02 1.03709E-02-1.91608E-02 1.36351E+01
 -1        84-2.63168E+02-9.85070E-01 2.60561E+02-5.16288E-03-2.14417E-02-3.30772E+01
 -1        85 9.80445E+03 9.43796E+03 2.34903E+04 2.27830E-05 1.81863E-05 6.48100E+03
 -1        86 3.35316E+03 6.50718E+03 1.94724E+04 2.67587E-03 1.80880E-03 2.26477E+03
 -1        87 9.80447E+03 9.43798E+03 2.34904E+04 2.27832E-05 1.81862E-05 6.48101E+03
 -1        88 3.35307E+03 6.50716E+03 1.94724E+04 2.67587E-03 1.80880E-03 2.26477E+03
 -1        89 4.00645E+03 5.92582E+03 1.66186E+04-1.54252E-02 6.58398E-03 1.84942E+03
 -1        90 4.00664E+03 5.92592E+03 1.66188E+04-1.54252E-02 6.58398E-03 1.84942E+03
 -1        91 3.06545E+03 4.56227E+03 1.26753E+04-8.42144E-03 1.24844E-02 1.94539E+03
 -1        92 3.06565E+03 4.56235E+03 1.26754E+04-8.42145E-03 1.24844E-02 1.94541E+03
 -1        93 2.38882E+03 3.43802E+03 9.38085E+03-1.08761E-02 6.53065E-03 1.71753E+03
 -1        94 2.38911E+03 3.43812E+03 9.38090E+03-1.08761E-02 6.53065E-03 1.71751E+03
 -1        95 1.68633E+03 2.38899E+03 6.43538E+03-2.01764E-02 4.86279E-03 1.41846E+03
 -1        96 1.68669E+03 2.38913E+03 6.43549E+03-2.01764E-02 4.86279E-03 1.41844E+03
 -1        97 1.03055E+03 1.45196E+03 3.87599E+03-1.37898E-02 3.05623E-03 1.07381E+03
 -1        98 1.03080E+03 1.45207E+03 3.87609E+03-1.37898E-02 3.05623E-03 1.07377E+03
 -1        99 4.30121E+02 6.33899E+02 1.70277E+03-1.91229E-02 2.19326E-03 7.27732E+02
 -1       100 4.30313E+02 6.33980E+02 1.70284E+03-1.91230E-02 2.19327E-03 7.27689E+02
 -1       101-7.49432E+01-3.74622E+01-4.56791E+01-1.61520E-02 9.42772E-04 4.12748E+02
 -1       102-7.46512E+01-3.73435E+01-4.55762E+01-1.61520E-02 9.42774E-04 4.12726E+02
 -1       103-4.70456E+02-5.47689E+02-1.34915E+03-6.73024E-03-2.74137E-03 1.50994E+02
 -1       104-4.70191E+02-5.47574E+02-1.34903E+03-6.73025E-03-2.74137E-03 1.50998E+02
 -1       105-7.51414E+02-8.91732E+02-2.20725E+03-1.24798E-03 1.84030E-04-5.00700E+01
 -1       106-7.51226E+02-8.91624E+02-2.20708E+03-1.24798E-03 1.84031E-04-5.00922E+01
 -1       107-9.04520E+02-1.06678E+03-2.63169E+03-3.04150E-03 6.33283E-03-1.91211E+02
 -1       108-9.04287E+02-1.06665E+03-2.63150E+03-3.04151E-03 6.33284E-03-1.91305E+02
 -1       109-9.35701E+02-1.08687E+03-2.66682E+03-1.55835E-02 9.08347E-03-2.72931E+02
 -1       110-9.35477E+02-1.08675E+03-2.66666E+03-1.55835E-02 9.08348E-03-2.72997E+02
 -1       111-8.77657E+02-9.88895E+02-2.40211E+03-1.51533E-02 1.35040E-02-3.02215E+02
 -1       112-8.77472E+02-9.88796E+02-2.40197E+03-1.51534E-02 1.35040E-02-3.02280E+02
 -1       113-7.50914E+02-8.10802E+02-1.94108E+03-2.10159E-02 1.44314E-02-2.90423E+02
 -1       114-7.50642E+02-8.10681E+02-1.94095E+03-2.10159E-02 1.44314E-02-2.90401E+02
 -1       115-5.88647E+02-5.98385E+02-1.40052E+03 2.19584E-03 1.41149E-02-2.53047E+02
 -1       116-5.88649E+02-5.98401E+02-1.40057E+03 2.19584E-03 1.41149E-02-2.53031E+02
 -1       117-4.23828E+02-3.90764E+02-8.76630E+02-8.33771E-03 7.61516E-03-2.04504E+02
 -1       118-4.23598E+02-3.90691E+02-8.76616E+02-8.33773E-03 7.61517E-03-2.04598E+02
 -1       119-2.84026E+02-2.13867E+02-4.28294E+02-1.06832E-02 2.58557E-03-1.58163E+02
 -1       120-2.83962E+02-2.13856E+02-4.28321E+02-1.06832E-02 2.58557E-03-1.58186E+02
 -1       121-1.29153E+02-6.64401E+01-9.22914E+01-8.55535E-03 5.31591E-04-1.01660E+02
 -1       122-1.29039E+02-6.64152E+01-9.23220E+01-8.55535E-03 5.31591E-04-1.01664E+02
 -1       123-1.93415E+02-5.42989E+01 1.26572E+01 1.71394E-03-7.97353E-03-1.08864E+02
 -1       124-1.93660E+02-5.44167E+01 1.25103E+01 1.71394E-03-7.97353E-03-1.08905E+02
 -1       125 3.75783E+02 2.03508E+02 3.03494E+02-1.21157E-02-5.66837E-03-2.09348E+02
 -1       126 3.76255E+02 2.03729E+02 3.03761E+02-1.21157E-02-5.66837E-03-2.09525E+02
 -3
    1PSTEP                       119          30           3          
  100CL  130 5.00000E-01         126                     1   30           1
 -4  TOSTRAIN    6    1
 -5  EXX         1    4    1    1
 -5  EYY         1    4    2    2
 -5  EZZ         1    4    3    3
 -5  EXY         1    4    1    2
 -5  EYZ         1    4    2    3
 -5  EZX         1    4    3    1
 -1         1-1.60886E-04-6.83963E-17-4.23491E-02 8.08184E-12-3.20683E-13 1.73960E-02
 -1         2-1.59678E-04-2.28098E-16-7.40713E-04 1.96355E-10-2.44155E-13 1.25953E-02
 -1         3-3.81813E-04 1.20100E-15-3.93999E-04-9.83957E-09 2.75611E-08 3.00141E-03
 -1         4 1.04252E-02 3.19892E-16-3.97044E-02 1.97961E-08 6.19014E-09 4.68805E-03
 -1         5-1.60889E-04-6.83963E-17-4.23491E-02 8.08095E-12-3.20683E-13 1.73961E-02
 -1         6-1.59678E-04-2.28098E-16-7.40380E-04 1.96355E-10-2.44155E-13 1.25953E-02
 -1         7-3.81743E-04 1.20100E-15-3.93763E-04-9.83957E-09 2.75611E-08 3.00133E-03
 -1         8 1.04255E-02 3.19892E-16-3.97044E-02 1.97961E-08 6.19013E-09 4.68794E-03
 -1         9-5.03109E-04 4.02682E-15 1.18931E-04-2.99818E-08 3.85321E-08 3.78247E-03
 -1        10 6.26118E-03-1.09756E-15-3.27259E-02 1.19990E-09-1.80070E-09 2.47652E-03
 -1        11-5.02791E-04 4.02682E-15 1.19031E-04-2.99818E-08 3.85321E-08 3.78244E-03
 -1        12 6.26156E-03-1.09756E-15-3.27260E-02 1.19990E-09-1.80070E-09 2.47633E-03
 -1        13-4.63851E-04 2.82275E-15 4.70743E-04-2.52371E-09 4.30850E-08 3.32143E-03
 -1        14 5.13056E-03 6.43291E-16-2.47409E-02 3.42861E-08-4.59682E-09 2.64573E-03
 -1        15-4.63455E-04 2.82275E-15 4.70776E-04-2.52373E-09 4.30850E-08 3.32145E-03
 -1        16 5.13101E-03 6.43291E-16-2.47407E-02 3.42861E-08-4.59680E-09 2.64566E-03
 -1        17-5.18669E-04 2.92306E-15 8.29226E-04 1.42794E-08 4.37326E-08 3.04105E-03
 -1        18 3.54128E-03 9.49785E-15-1.77288E-02 6.79080E-08 2.87621E-08 2.31772E-03
 -1        19-5.18036E-04 2.92306E-15 8.29084E-04 1.42794E-08 4.37326E-08 3.04108E-03
 -1        20 3.54192E-03 9.49785E-15-1.77286E-02 6.79080E-08 2.87621E-08 2.31773E-03
 -1        21-5.78774E-04-8.63407E-16 1.14314E-03-9.56461E-09 1.95315E-08 2.72132E-03
 -1        22 2.18498E-03 8.15065E-15-1.13611E-02 6.65150E-08 2.61520E-08 2.08699E-03
 -1        23-5.77971E-04-8.63407E-16 1.14286E-03-9.56461E-09 1.95314E-08 2.72133E-03
 -1        24 2.18589E-03 8.15065E-15-1.13612E-02 6.65151E-08 2.61520E-08 2.08699E-03
 -1        25-6.50630E-04-9.72605E-16 1.40410E-03-4.08808E-09-4.00702E-09 2.39115E-03
 -1        26 9.41853E-04 4.10682E-15-5.70501E-03 5.28218E-08 2.36379E-09 1.82660E-03
 -1        27-6.50038E-04-9.72605E-16 1.40391E-03-4.08809E-09-4.00701E-09 2.39109E-03
 -1        28 9.42536E-04 4.10682E-15-5.70531E-03 5.28219E-08 2.36378E-09 1.82650E-03
 -1        29-7.31319E-04 1.11835E-15 1.62013E-03-2.92343E-08-1.20454E-08 2.01626E-03
 -1        30-1.48648E-04 7.35861E-16-8.20152E-04 2.15365E-08-2.38695E-08 1.53862E-03
 -1        31-7.30814E-04 1.11835E-15 1.62003E-03-2.92343E-08-1.20453E-08 2.01619E-03
 -1        32-1.48038E-04 7.35861E-16-8.20390E-04 2.15365E-08-2.38695E-08 1.53854E-03
 -1        33-7.95679E-04-1.59442E-16 1.78736E-03-4.69424E-09-2.18981E-08 1.60209E-03
 -1        34-1.04051E-03 6.44562E-15 3.18504E-03 4.99742E-08-3.73315E-08 1.22411E-03
 -1        35-7.95065E-04-1.59442E-16 1.78730E-03-4.69423E-09-2.18981E-08 1.60214E-03
 -1        36-1.03985E-03 6.44562E-15 3.18510E-03 4.99743E-08-3.73315E-08 1.22415E-03
 -1        37-8.50069E-04 9.83275E-16 1.91498E-03 1.87664E-08-2.22321E-08 1.15962E-03
 -1        38-1.71885E-03 7.79418E-15 6.22164E-03 6.39779E-08-1.39674E-08 8.87404E-04
 -1        39-8.49564E-04 9.83275E-16 1.91503E-03 1.87664E-08-2.22321E-08 1.15969E-03
 -1        40-1.71831E-03 7.79418E-15 6.22177E-03 6.39779E-08-1.39674E-08 8.87506E-04
 -1        41-9.01140E-04 5.94478E-16 2.01086E-03 1.91436E-08-1.40116E-08 7.05988E-04
 -1        42-2.18497E-03 8.75314E-15 8.25351E-03 6.70593E-08-1.58737E-08 5.41567E-04
 -1        43-9.00713E-04 5.94478E-16 2.01098E-03 1.91436E-08-1.40116E-08 7.05952E-04
 -1        44-2.18440E-03 8.75314E-15 8.25355E-03 6.70594E-08-1.58737E-08 5.41547E-04
 -1        45-9.23103E-04 1.15557E-16 2.05544E-03 2.22874E-08-2.68114E-09 2.67720E-04
 -1        46-2.41815E-03 6.44918E-15 9.28512E-03 6.08885E-08-8.85079E-09 2.12137E-04
 -1        47-9.22661E-04 1.15557E-16 2.05560E-03 2.22874E-08-2.68114E-09 2.67516E-04
 -1        48-2.41769E-03 6.44918E-15 9.28546E-03 6.08885E-08-8.85081E-09 2.11960E-04
 -1        49-9.00646E-04 2.72802E-16 2.03033E-03-2.08617E-08 1.31184E-08-1.10029E-04
 -1        50-2.41245E-03 2.51988E-15 9.36616E-03 2.04469E-08 3.98712E-08-6.87200E-05
 -1        51-9.00198E-04 2.72802E-16 2.03044E-03-2.08617E-08 1.31184E-08-1.10126E-04
 -1        52-2.41196E-03 2.51988E-15 9.36641E-03 2.04469E-08 3.98712E-08-6.86732E-05
 -1        53-8.55569E-04 1.26822E-15 1.94318E-03-2.69104E-08 1.63272E-08-3.90188E-04
 -1        54-2.22939E-03 2.11900E-15 8.66669E-03 2.33307E-08 3.22407E-08-2.79470E-04
 -1        55-8.55102E-04 1.26822E-15 1.94329E-03-2.69104E-08 1.63272E-08-3.90246E-04
 -1        56-2.22879E-03 2.11900E-15 8.66675E-03 2.33307E-08 3.22407E-08-2.79420E-04
 -1        57-7.79450E-04 3.55590E-15 1.79848E-03-3.43950E-08 3.19998E-08-5.51738E-04
 -1        58-1.91710E-03 3.64734E-15 7.44844E-03 6.18391E-09 4.83559E-08-4.00860E-04
 -1        59-7.78972E-04 3.55590E-15 1.79860E-03-3.43951E-08 3.19998E-08-5.51617E-04
 -1        60-1.91662E-03 3.64734E-15 7.44843E-03 6.18392E-09 4.83559E-08-4.00693E-04
 -1        61-6.73375E-04 2.00007E-15 1.59720E-03 4.24630E-09 3.67856E-08-6.04371E-04
 -1        62-1.52950E-03 5.27882E-15 5.97648E-03 4.69973E-08 3.02120E-08-4.41454E-04
 -1        63-6.73103E-04 2.00007E-15 1.59703E-03 4.24630E-09 3.67856E-08-6.04266E-04
 -1        64-1.52899E-03 5.27882E-15 5.97630E-03 4.69973E-08 3.02120E-08-4.41350E-04
 -1        65-5.63649E-04-4.42756E-16 1.36202E-03 1.76956E-08 3.41257E-09-5.82021E-04
 -1        66-1.14914E-03 6.05538E-15 4.46635E-03 5.46084E-08 1.80820E-08-4.17151E-04
 -1        67-5.63142E-04-4.42756E-16 1.36178E-03 1.76956E-08 3.41256E-09-5.82105E-04
 -1        68-1.14870E-03 6.05538E-15 4.46624E-03 5.46085E-08 1.80820E-08-4.17085E-04
 -1        69-4.44565E-04-1.10133E-16 1.10227E-03-1.99751E-08-2.99722E-09-5.05733E-04
 -1        70-7.68467E-04 1.56673E-15 3.05656E-03 3.96220E-08 1.29418E-08-3.61636E-04
 -1        71-4.44115E-04-1.10133E-16 1.10215E-03-1.99751E-08-2.99721E-09-5.05772E-04
 -1        72-7.67752E-04 1.56673E-15 3.05615E-03 3.96220E-08 1.29418E-08-3.61642E-04
 -1        73-3.14454E-04 4.00258E-17 8.15613E-04-4.03109E-09-1.67755E-08-4.01310E-04
 -1        74-4.99064E-04 4.60247E-15 1.81360E-03 2.09494E-08-4.99016E-08-2.08385E-04
 -1        75-3.14161E-04 4.00258E-17 8.15344E-04-4.03108E-09-1.67754E-08-4.01466E-04
 -1        76-4.98764E-04 4.60247E-15 1.81336E-03 2.09495E-08-4.99016E-08-2.08568E-04
 -1        77-1.73797E-04 4.12695E-15 4.60019E-04-2.35153E-08-4.77940E-08-2.17400E-04
 -1        78 1.94518E-05 3.32997E-15 1.02139E-03 4.50560E-08-2.68045E-08-3.01877E-04
 -1        79-1.73577E-04 4.12695E-15 4.59771E-04-2.35153E-08-4.77940E-08-2.17272E-04
 -1        80 2.02746E-05 3.32997E-15 1.02127E-03 4.50560E-08-2.68045E-08-3.01841E-04
 -1        81-5.21461E-05 7.73197E-15 2.53107E-04 4.03687E-08-5.81508E-08 1.11698E-05
 -1        82-8.08581E-04 8.58681E-15 8.05271E-04-9.04196E-09-7.10559E-08-2.90581E-04
 -1        83-5.19773E-05 7.73197E-15 2.52982E-04 4.03687E-08-5.81508E-08 1.14082E-05
 -1        84-8.09174E-04 8.58681E-15 8.04740E-04-9.04196E-09-7.10559E-08-2.90982E-04
 -1        85-1.58470E-04 1.27964E-17 4.24264E-02 5.28250E-11-3.23493E-13 1.85977E-02
 -1        86-1.11888E-02-6.43850E-16 3.98984E-02 8.36571E-09 5.87631E-09 4.69227E-03
 -1        87-1.58468E-04 1.27964E-17 4.24265E-02 5.28251E-11-3.23493E-13 1.85977E-02
 -1        88-1.11890E-02-6.43850E-16 3.98985E-02 8.36572E-09 5.87631E-09 4.69226E-03
 -1        89-7.26740E-03 4.88183E-15 3.34310E-02-5.14632E-08 1.65516E-08 2.48801E-03
 -1        90-7.26714E-03 4.88183E-15 3.34312E-02-5.14632E-08 1.65516E-08 2.48804E-03
 -1        91-6.05827E-03 4.04297E-15 2.61175E-02-3.17001E-08 3.60211E-08 2.64547E-03
 -1        92-6.05792E-03 4.04297E-15 2.61175E-02-3.17001E-08 3.60211E-08 2.64557E-03
 -1        93-4.57862E-03 2.02269E-15 1.96467E-02-3.78368E-08 1.59374E-08 2.34928E-03
 -1        94-4.57799E-03 2.02269E-15 1.96465E-02-3.78368E-08 1.59374E-08 2.34935E-03
 -1        95-3.34252E-03 7.76276E-15 1.37811E-02-6.71197E-08 5.95979E-09 2.12200E-03
 -1        96-3.34183E-03 7.76276E-15 1.37811E-02-6.71197E-08 5.95979E-09 2.12206E-03
 -1        97-2.24311E-03 3.52483E-15 8.57054E-03-4.58047E-08 2.83035E-09 1.86511E-03
 -1        98-2.24261E-03 3.52483E-15 8.57050E-03-4.58048E-08 2.83035E-09 1.86508E-03
 -1        99-1.31399E-03 7.38438E-15 4.07072E-03-6.24851E-08-2.85609E-09 1.57521E-03
 -1       100-1.31359E-03 7.38438E-15 4.07068E-03-6.24851E-08-2.85609E-09 1.57513E-03
 -1       101-5.50848E-04 4.49754E-15 3.90286E-04-5.23206E-08-5.36518E-09 1.25433E-03
 -1       102-5.50277E-04 4.49754E-15 3.90228E-04-5.23207E-08-5.36519E-09 1.25436E-03
 -1       103 1.87148E-05 3.37573E-16-2.38843E-03-2.01897E-08-1.22688E-08 9.12346E-04
 -1       104 1.91825E-05 3.37573E-16-2.38840E-03-2.01897E-08-1.22688E-08 9.12432E-04
 -1       105 3.82695E-04-3.40616E-16-4.23808E-03-4.09376E-09-4.22689E-11 5.57327E-04
 -1       106 3.82974E-04-3.40616E-16-4.23789E-03-4.09376E-09-4.22691E-11 5.57266E-04
 -1       107 5.71945E-04 1.31184E-16-5.18197E-03-1.27640E-08 1.90104E-08 2.09310E-04
 -1       108 5.72366E-04 1.31184E-16-5.18184E-03-1.27640E-08 1.90104E-08 2.09029E-04
 -1       109 6.11161E-04 6.18111E-15-5.30772E-03-5.42825E-08 2.24308E-08-9.07359E-05
 -1       110 6.11562E-04 6.18111E-15-5.30762E-03-5.42825E-08 2.24308E-08-9.09189E-05
 -1       111 5.18254E-04 8.26885E-15-4.79256E-03-5.45799E-08 3.73316E-08-3.13822E-04
 -1       112 5.18585E-04 8.26885E-15-4.79247E-03-5.45800E-08 3.73316E-08-3.14008E-04
 -1       113 3.58202E-04 1.22920E-14-3.86447E-03-7.36282E-08 3.83227E-08-4.43811E-04
 -1       114 3.58672E-04 1.22920E-14-3.86442E-03-7.36282E-08 3.83227E-08-4.43683E-04
 -1       115 1.82755E-04 3.20864E-15-2.77199E-03 1.68971E-09 4.65978E-08-4.91234E-04
 -1       116 1.82786E-04 3.20864E-15-2.77209E-03 1.68971E-09 4.65978E-08-4.91163E-04
 -1       117 2.18463E-05 1.59874E-15-1.71368E-03-2.97544E-08 2.14993E-08-4.80772E-04
 -1       118 2.24159E-05 1.59874E-15-1.71394E-03-2.97544E-08 2.14993E-08-4.80993E-04
 -1       119-1.20663E-04 2.42192E-15-8.05728E-04-3.54596E-08 4.44310E-09-4.49376E-04
 -1       120-1.20477E-04 2.42192E-15-8.05866E-04-3.54596E-08 4.44310E-09-4.49415E-04
 -1       121-1.29844E-04 1.04956E-15-1.58109E-04-2.78319E-08-1.37661E-09-3.35657E-04
 -1       122-1.29558E-04 1.04956E-15-1.58287E-04-2.78319E-08-1.37662E-09-3.35618E-04
 -1       123-3.67045E-04 6.59758E-16 1.31679E-04 8.37647E-09-2.51383E-08-4.18802E-04
 -1       124-3.67428E-04 6.59758E-16 1.31551E-04 8.37648E-09-2.51383E-08-4.18965E-04
 -1       125 7.04289E-04 1.34291E-15 1.78165E-04-3.71021E-08-2.26496E-08-6.36816E-04
 -1       126 7.05219E-04 1.34291E-15 1.78194E-04-3.71022E-08-2.26496E-08-6.37303E-04
 -3
    1PSTEP                       120          30           3          
  100CL  130 5.00000E-01         126                     1   30           1
 -4  ERROR       1    1
 -5  STR(%)      1    1    0    0
 -1         1 6.10244E+01
 -1         2 6.52221E+01
 -1         3 6.52221E+01
 -1         4 6.10244E+01
 -1         5 6.10244E+01
 -1         6 6.52221E+01
 -1         7 6.52221E+01
 -1         8 6.10244E+01
 -1         9 6.29855E+01
 -1        10 6.24410E+01
 -1        11 6.29855E+01
 -1        12 6.24410E+01
 -1        13 6.39392E+01
 -1        14 6.39392E+01
 -1        15 6.39392E+01
 -1        16 6.39392E+01
 -1        17 6.58873E+01
 -1        18 6.58873E+01
 -1        19 6.58873E+01
 -1        20 6.58873E+01
 -1        21 6.61057E+01
 -1        22 6.61057E+01
 -1        23 6.61057E+01
 -1        24 6.61057E+01
 -1        25 6.61057E+01
 -1        26 6.61057E+01
 -1        27 6.61057E+01
 -1        28 6.61057E+01
 -1        29 5.57095E+01
 -1        30 5.57095E+01
 -1        31 5.57095E+01
 -1        32 5.57095E+01
 -1        33 8.15268E+01
 -1        34 2.91486E+01
 -1        35 8.15268E+01
 -1        36 2.91486E+01
 -1        37 8.83252E+01
 -1        38 4.11940E+01
 -1        39 8.83252E+01
 -1        40 4.11940E+01
 -1        41 8.83252E+01
 -1        42 4.39999E+01
 -1        43 8.83252E+01
 -1        44 4.39999E+01
 -1        45 8.73217E+01
 -1        46 4.41491E+01
 -1        47 8.73217E+01
 -1        48 4.41491E+01
 -1        49 8.46895E+01
 -1        50 4.43032E+01
 -1        51 8.46895E+01
 -1        52 4.43032E+01
 -1        53 8.79315E+01
 -1        54 4.43032E+01
 -1        55 8.79315E+01
 -1        56 4.43032E+01
 -1        57 8.97656E+01
 -1        58 4.35614E+01
 -1        59 8.97656E+01
 -1        60 4.35614E+01
 -1        61 9.28201E+01
 -1        62 4.17242E+01
 -1        63 9.28201E+01
 -1        64 4.17242E+01
 -1        65 1.01575E+02
 -1        66 3.90277E+01
 -1        67 1.01575E+02
 -1        68 3.90277E+01
 -1        69 1.01575E+02
 -1        70 3.44100E+01
 -1        71 1.01575E+02
 -1        72 3.44100E+01
 -1        73 7.35529E+01
 -1        74 2.85191E+01
 -1        75 7.35529E+01
 -1        76 2.85191E+01
 -1        77 6.53053E+01
 -1        78 6.53053E+01
 -1        79 6.53053E+01
 -1        80 6.53053E+01
 -1        81 6.53053E+01
 -1        82 6.53053E+01
 -1        83 6.53053E+01
 -1        84 6.53053E+01
 -1        85 6.52221E+01
 -1        86 6.52221E+01
 -1        87 6.52221E+01
 -1        88 6.52221E+01
 -1        89 6.29855E+01
 -1        90 6.29855E+01
 -1        91 6.23557E+01
 -1        92 6.23557E+01
 -1        93 6.04864E+01
 -1        94 6.04864E+01
 -1        95 5.73410E+01
 -1        96 5.73410E+01
 -1        97 5.11955E+01
 -1        98 5.11955E+01
 -1        99 3.67180E+01
 -1       100 3.67180E+01
 -1       101 8.15268E+01
 -1       102 8.15268E+01
 -1       103 8.83252E+01
 -1       104 8.83252E+01
 -1       105 8.83252E+01
 -1       106 8.83252E+01
 -1       107 8.73217E+01
 -1       108 8.73217E+01
 -1       109 8.46895E+01
 -1       110 8.46895E+01
 -1       111 8.79315E+01
 -1       112 8.79315E+01
 -1       113 8.97656E+01
 -1       114 8.97656E+01
 -1       115 9.28201E+01
 -1       116 9.28201E+01
 -1       117 1.01575E+02
 -1       118 1.01575E+02
 -1       119 1.01575E+02
 -1       120 1.01575E+02
 -1       121 7.35529E+01
 -1       122 7.35529E+01
 -1       123 5.87622E+01
 -1       124 5.87622E+01
 -1       125 5.06257E+01
 -1       126 5.06257E+01
 -3
 9999
