    1C
    1UUSER                                                              
    1UDATE              26.february.2021                                
    1UTIME              14:00:04                                        
    1UHOST                                                              
    1UPGM               CalculiX                                        
    1UVERSION           Version 2.16                             
    1UCOMPILETIME       Mo 25. Nov 18:56:47 CET 2019                    
    1UDIR                                                               
    1UDBN                                                               
    1UMAT    1EL                                                        
    2C                           126                                     1
 -1         1 5.00000E-02 0.00000E+00 0.00000E+00
 -1         2 0.00000E+00 0.00000E+00 0.00000E+00
 -1         3 0.00000E+00 0.00000E+00 5.00000E-02
 -1         4 5.00000E-02 0.00000E+00 5.00000E-02
 -1         5 5.00000E-02 3.00000E-01 0.00000E+00
 -1         6 0.00000E+00 3.00000E-01 0.00000E+00
 -1         7 0.00000E+00 3.00000E-01 5.00000E-02
 -1         8 5.00000E-02 3.00000E-01 5.00000E-02
 -1         9 0.00000E+00 0.00000E+00 1.00000E-01
 -1        10 5.00000E-02 0.00000E+00 1.00000E-01
 -1        11 0.00000E+00 3.00000E-01 1.00000E-01
 -1        12 5.00000E-02 3.00000E-01 1.00000E-01
 -1        13 0.00000E+00 0.00000E+00 1.50000E-01
 -1        14 5.00000E-02 0.00000E+00 1.50000E-01
 -1        15 0.00000E+00 3.00000E-01 1.50000E-01
 -1        16 5.00000E-02 3.00000E-01 1.50000E-01
 -1        17 0.00000E+00 0.00000E+00 2.00000E-01
 -1        18 5.00000E-02 0.00000E+00 2.00000E-01
 -1        19 0.00000E+00 3.00000E-01 2.00000E-01
 -1        20 5.00000E-02 3.00000E-01 2.00000E-01
 -1        21 0.00000E+00 0.00000E+00 2.50000E-01
 -1        22 5.00000E-02 0.00000E+00 2.50000E-01
 -1        23 0.00000E+00 3.00000E-01 2.50000E-01
 -1        24 5.00000E-02 3.00000E-01 2.50000E-01
 -1        25 0.00000E+00 0.00000E+00 3.00000E-01
 -1        26 5.00000E-02 0.00000E+00 3.00000E-01
 -1        27 0.00000E+00 3.00000E-01 3.00000E-01
 -1        28 5.00000E-02 3.00000E-01 3.00000E-01
 -1        29 0.00000E+00 0.00000E+00 3.50000E-01
 -1        30 5.00000E-02 0.00000E+00 3.50000E-01
 -1        31 0.00000E+00 3.00000E-01 3.50000E-01
 -1        32 5.00000E-02 3.00000E-01 3.50000E-01
 -1        33 0.00000E+00 0.00000E+00 4.00000E-01
 -1        34 5.00000E-02 0.00000E+00 4.00000E-01
 -1        35 0.00000E+00 3.00000E-01 4.00000E-01
 -1        36 5.00000E-02 3.00000E-01 4.00000E-01
 -1        37 0.00000E+00 0.00000E+00 4.50000E-01
 -1        38 5.00000E-02 0.00000E+00 4.50000E-01
 -1        39 0.00000E+00 3.00000E-01 4.50000E-01
 -1        40 5.00000E-02 3.00000E-01 4.50000E-01
 -1        41 0.00000E+00 0.00000E+00 5.00000E-01
 -1        42 5.00000E-02 0.00000E+00 5.00000E-01
 -1        43 0.00000E+00 3.00000E-01 5.00000E-01
 -1        44 5.00000E-02 3.00000E-01 5.00000E-01
 -1        45 0.00000E+00 0.00000E+00 5.50000E-01
 -1        46 5.00000E-02 0.00000E+00 5.50000E-01
 -1        47 0.00000E+00 3.00000E-01 5.50000E-01
 -1        48 5.00000E-02 3.00000E-01 5.50000E-01
 -1        49 0.00000E+00 0.00000E+00 6.00000E-01
 -1        50 5.00000E-02 0.00000E+00 6.00000E-01
 -1        51 0.00000E+00 3.00000E-01 6.00000E-01
 -1        52 5.00000E-02 3.00000E-01 6.00000E-01
 -1        53 0.00000E+00 0.00000E+00 6.50000E-01
 -1        54 5.00000E-02 0.00000E+00 6.50000E-01
 -1        55 0.00000E+00 3.00000E-01 6.50000E-01
 -1        56 5.00000E-02 3.00000E-01 6.50000E-01
 -1        57 0.00000E+00 0.00000E+00 7.00000E-01
 -1        58 5.00000E-02 0.00000E+00 7.00000E-01
 -1        59 0.00000E+00 3.00000E-01 7.00000E-01
 -1        60 5.00000E-02 3.00000E-01 7.00000E-01
 -1        61 0.00000E+00 0.00000E+00 7.50000E-01
 -1        62 5.00000E-02 0.00000E+00 7.50000E-01
 -1        63 0.00000E+00 3.00000E-01 7.50000E-01
 -1        64 5.00000E-02 3.00000E-01 7.50000E-01
 -1        65 0.00000E+00 0.00000E+00 8.00000E-01
 -1        66 5.00000E-02 0.00000E+00 8.00000E-01
 -1        67 0.00000E+00 3.00000E-01 8.00000E-01
 -1        68 5.00000E-02 3.00000E-01 8.00000E-01
 -1        69 0.00000E+00 0.00000E+00 8.50000E-01
 -1        70 5.00000E-02 0.00000E+00 8.50000E-01
 -1        71 0.00000E+00 3.00000E-01 8.50000E-01
 -1        72 5.00000E-02 3.00000E-01 8.50000E-01
 -1        73 0.00000E+00 0.00000E+00 9.00000E-01
 -1        74 5.00000E-02 0.00000E+00 9.00000E-01
 -1        75 0.00000E+00 3.00000E-01 9.00000E-01
 -1        76 5.00000E-02 3.00000E-01 9.00000E-01
 -1        77 0.00000E+00 0.00000E+00 9.50000E-01
 -1        78 5.00000E-02 0.00000E+00 9.50000E-01
 -1        79 0.00000E+00 3.00000E-01 9.50000E-01
 -1        80 5.00000E-02 3.00000E-01 9.50000E-01
 -1        81 0.00000E+00 0.00000E+00 1.00000E+00
 -1        82 5.00000E-02 0.00000E+00 1.00000E+00
 -1        83 0.00000E+00 3.00000E-01 1.00000E+00
 -1        84 5.00000E-02 3.00000E-01 1.00000E+00
 -1        85-5.00000E-02 0.00000E+00 0.00000E+00
 -1        86-5.00000E-02 0.00000E+00 5.00000E-02
 -1        87-5.00000E-02 3.00000E-01 0.00000E+00
 -1        88-5.00000E-02 3.00000E-01 5.00000E-02
 -1        89-5.00000E-02 0.00000E+00 1.00000E-01
 -1        90-5.00000E-02 3.00000E-01 1.00000E-01
 -1        91-5.00000E-02 0.00000E+00 1.50000E-01
 -1        92-5.00000E-02 3.00000E-01 1.50000E-01
 -1        93-5.00000E-02 0.00000E+00 2.00000E-01
 -1        94-5.00000E-02 3.00000E-01 2.00000E-01
 -1        95-5.00000E-02 0.00000E+00 2.50000E-01
 -1        96-5.00000E-02 3.00000E-01 2.50000E-01
 -1        97-5.00000E-02 0.00000E+00 3.00000E-01
 -1        98-5.00000E-02 3.00000E-01 3.00000E-01
 -1        99-5.00000E-02 0.00000E+00 3.50000E-01
 -1       100-5.00000E-02 3.00000E-01 3.50000E-01
 -1       101-5.00000E-02 0.00000E+00 4.00000E-01
 -1       102-5.00000E-02 3.00000E-01 4.00000E-01
 -1       103-5.00000E-02 0.00000E+00 4.50000E-01
 -1       104-5.00000E-02 3.00000E-01 4.50000E-01
 -1       105-5.00000E-02 0.00000E+00 5.00000E-01
 -1       106-5.00000E-02 3.00000E-01 5.00000E-01
 -1       107-5.00000E-02 0.00000E+00 5.50000E-01
 -1       108-5.00000E-02 3.00000E-01 5.50000E-01
 -1       109-5.00000E-02 0.00000E+00 6.00000E-01
 -1       110-5.00000E-02 3.00000E-01 6.00000E-01
 -1       111-5.00000E-02 0.00000E+00 6.50000E-01
 -1       112-5.00000E-02 3.00000E-01 6.50000E-01
 -1       113-5.00000E-02 0.00000E+00 7.00000E-01
 -1       114-5.00000E-02 3.00000E-01 7.00000E-01
 -1       115-5.00000E-02 0.00000E+00 7.50000E-01
 -1       116-5.00000E-02 3.00000E-01 7.50000E-01
 -1       117-5.00000E-02 0.00000E+00 8.00000E-01
 -1       118-5.00000E-02 3.00000E-01 8.00000E-01
 -1       119-5.00000E-02 0.00000E+00 8.50000E-01
 -1       120-5.00000E-02 3.00000E-01 8.50000E-01
 -1       121-5.00000E-02 0.00000E+00 9.00000E-01
 -1       122-5.00000E-02 3.00000E-01 9.00000E-01
 -1       123-5.00000E-02 0.00000E+00 9.50000E-01
 -1       124-5.00000E-02 3.00000E-01 9.50000E-01
 -1       125-5.00000E-02 0.00000E+00 1.00000E+00
 -1       126-5.00000E-02 3.00000E-01 1.00000E+00
 -3
    3C                            40                                     1
 -1         1    1    0    1
 -2         1         2         3         4         5         6         7         8
 -1         2    1    0    1
 -2         4         3         9        10         8         7        11        12
 -1         3    1    0    1
 -2        10         9        13        14        12        11        15        16
 -1         4    1    0    1
 -2        14        13        17        18        16        15        19        20
 -1         5    1    0    1
 -2        18        17        21        22        20        19        23        24
 -1         6    1    0    1
 -2        22        21        25        26        24        23        27        28
 -1         7    1    0    1
 -2        26        25        29        30        28        27        31        32
 -1         8    1    0    1
 -2        30        29        33        34        32        31        35        36
 -1         9    1    0    1
 -2        34        33        37        38        36        35        39        40
 -1        10    1    0    1
 -2        38        37        41        42        40        39        43        44
 -1        11    1    0    1
 -2        42        41        45        46        44        43        47        48
 -1        12    1    0    1
 -2        46        45        49        50        48        47        51        52
 -1        13    1    0    1
 -2        50        49        53        54        52        51        55        56
 -1        14    1    0    1
 -2        54        53        57        58        56        55        59        60
 -1        15    1    0    1
 -2        58        57        61        62        60        59        63        64
 -1        16    1    0    1
 -2        62        61        65        66        64        63        67        68
 -1        17    1    0    1
 -2        66        65        69        70        68        67        71        72
 -1        18    1    0    1
 -2        70        69        73        74        72        71        75        76
 -1        19    1    0    1
 -2        74        73        77        78        76        75        79        80
 -1        20    1    0    1
 -2        78        77        81        82        80        79        83        84
 -1        21    1    0    1
 -2         2        85        86         3         6        87        88         7
 -1        22    1    0    1
 -2         3        86        89         9         7        88        90        11
 -1        23    1    0    1
 -2         9        89        91        13        11        90        92        15
 -1        24    1    0    1
 -2        13        91        93        17        15        92        94        19
 -1        25    1    0    1
 -2        17        93        95        21        19        94        96        23
 -1        26    1    0    1
 -2        21        95        97        25        23        96        98        27
 -1        27    1    0    1
 -2        25        97        99        29        27        98       100        31
 -1        28    1    0    1
 -2        29        99       101        33        31       100       102        35
 -1        29    1    0    1
 -2        33       101       103        37        35       102       104        39
 -1        30    1    0    1
 -2        37       103       105        41        39       104       106        43
 -1        31    1    0    1
 -2        41       105       107        45        43       106       108        47
 -1        32    1    0    1
 -2        45       107       109        49        47       108       110        51
 -1        33    1    0    1
 -2        49       109       111        53        51       110       112        55
 -1        34    1    0    1
 -2        53       111       113        57        55       112       114        59
 -1        35    1    0    1
 -2        57       113       115        61        59       114       116        63
 -1        36    1    0    1
 -2        61       115       117        65        63       116       118        67
 -1        37    1    0    1
 -2        65       117       119        69        67       118       120        71
 -1        38    1    0    1
 -2        69       119       121        73        71       120       122        75
 -1        39    1    0    1
 -2        73       121       123        77        75       122       124        79
 -1        40    1    0    1
 -2        77       123       125        81        79       124       126        83
 -3
    1PSTEP                         1           1           2          
  100CL  101 1.10000E-01         126                     1    1           1
 -4  DISP        4    1
 -5  D1          1    2    1    0
 -5  D2          1    2    2    0
 -5  D3          1    2    3    0
 -5  ALL         1    2    0    0    1ALL
 -1         1 0.00000E+00 0.00000E+00 0.00000E+00
 -1         2 0.00000E+00 0.00000E+00 0.00000E+00
 -1         3 3.77656E-04 0.00000E+00 8.06582E-05
 -1         4 4.33366E-04 0.00000E+00-3.01697E-04
 -1         5 0.00000E+00 0.00000E+00 0.00000E+00
 -1         6 0.00000E+00 0.00000E+00 0.00000E+00
 -1         7 3.77563E-04 0.00000E+00 8.06694E-05
 -1         8 4.33507E-04 0.00000E+00-3.01698E-04
 -1         9 1.09320E-03 0.00000E+00 1.72439E-04
 -1        10 1.08443E-03 0.00000E+00-4.50678E-04
 -1        11 1.09317E-03 0.00000E+00 1.72445E-04
 -1        12 1.08452E-03 0.00000E+00-4.50685E-04
 -1        13 1.90583E-03 0.00000E+00 2.54763E-04
 -1        14 1.87877E-03 0.00000E+00-4.50989E-04
 -1        15 1.90577E-03 0.00000E+00 2.54777E-04
 -1        16 1.87887E-03 0.00000E+00-4.50981E-04
 -1        17 2.70175E-03 0.00000E+00 3.29141E-04
 -1        18 2.66001E-03 0.00000E+00-3.54412E-04
 -1        19 2.70173E-03 0.00000E+00 3.29153E-04
 -1        20 2.66015E-03 0.00000E+00-3.54416E-04
 -1        21 3.39407E-03 0.00000E+00 3.95614E-04
 -1        22 3.34873E-03 0.00000E+00-2.02453E-04
 -1        23 3.39398E-03 0.00000E+00 3.95608E-04
 -1        24 3.34881E-03 0.00000E+00-2.02452E-04
 -1        25 3.94941E-03 0.00000E+00 4.54140E-04
 -1        26 3.90788E-03 0.00000E+00-3.39922E-05
 -1        27 3.94935E-03 0.00000E+00 4.54121E-04
 -1        28 3.90797E-03 0.00000E+00-3.40201E-05
 -1        29 4.36845E-03 0.00000E+00 5.04816E-04
 -1        30 4.33490E-03 0.00000E+00 1.22146E-04
 -1        31 4.36843E-03 0.00000E+00 5.04795E-04
 -1        32 4.33503E-03 0.00000E+00 1.22126E-04
 -1        33 4.68769E-03 0.00000E+00 5.48746E-04
 -1        34 4.66104E-03 0.00000E+00 2.54791E-04
 -1        35 4.68763E-03 0.00000E+00 5.48729E-04
 -1        36 4.66113E-03 0.00000E+00 2.54785E-04
 -1        37 4.93236E-03 0.00000E+00 5.88371E-04
 -1        38 4.90984E-03 0.00000E+00 3.70996E-04
 -1        39 4.93230E-03 0.00000E+00 5.88364E-04
 -1        40 4.90992E-03 0.00000E+00 3.70988E-04
 -1        41 5.09514E-03 0.00000E+00 6.25934E-04
 -1        42 5.07797E-03 0.00000E+00 4.71904E-04
 -1        43 5.09509E-03 0.00000E+00 6.25940E-04
 -1        44 5.07806E-03 0.00000E+00 4.71910E-04
 -1        45 5.19114E-03 0.00000E+00 6.62068E-04
 -1        46 5.18218E-03 0.00000E+00 5.43386E-04
 -1        47 5.19107E-03 0.00000E+00 6.62080E-04
 -1        48 5.18225E-03 0.00000E+00 5.43396E-04
 -1        49 5.28019E-03 0.00000E+00 6.96089E-04
 -1        50 5.27731E-03 0.00000E+00 5.82492E-04
 -1        51 5.28014E-03 0.00000E+00 6.96096E-04
 -1        52 5.27739E-03 0.00000E+00 5.82492E-04
 -1        53 5.40244E-03 0.00000E+00 7.27454E-04
 -1        54 5.39941E-03 0.00000E+00 6.12546E-04
 -1        55 5.40241E-03 0.00000E+00 7.27447E-04
 -1        56 5.39952E-03 0.00000E+00 6.12569E-04
 -1        57 5.53453E-03 0.00000E+00 7.56697E-04
 -1        58 5.52751E-03 0.00000E+00 6.58644E-04
 -1        59 5.53442E-03 0.00000E+00 7.56696E-04
 -1        60 5.52751E-03 0.00000E+00 6.58687E-04
 -1        61 5.63617E-03 0.00000E+00 7.84104E-04
 -1        62 5.62615E-03 0.00000E+00 7.26665E-04
 -1        63 5.63609E-03 0.00000E+00 7.84113E-04
 -1        64 5.62619E-03 0.00000E+00 7.26698E-04
 -1        65 5.67735E-03 0.00000E+00 8.09366E-04
 -1        66 5.66752E-03 0.00000E+00 8.08924E-04
 -1        67 5.67729E-03 0.00000E+00 8.09334E-04
 -1        68 5.66766E-03 0.00000E+00 8.08893E-04
 -1        69 5.64002E-03 0.00000E+00 8.34708E-04
 -1        70 5.63071E-03 0.00000E+00 8.93241E-04
 -1        71 5.63987E-03 0.00000E+00 8.34728E-04
 -1        72 5.63062E-03 0.00000E+00 8.93082E-04
 -1        73 5.54170E-03 0.00000E+00 8.58955E-04
 -1        74 5.53205E-03 0.00000E+00 9.74317E-04
 -1        75 5.54171E-03 0.00000E+00 8.59043E-04
 -1        76 5.53210E-03 0.00000E+00 9.74415E-04
 -1        77 5.38159E-03 0.00000E+00 8.83083E-04
 -1        78 5.38884E-03 0.00000E+00 1.02703E-03
 -1        79 5.38127E-03 0.00000E+00 8.83038E-04
 -1        80 5.38883E-03 0.00000E+00 1.02687E-03
 -1        81 5.22271E-03 0.00000E+00 8.91488E-04
 -1        82 5.19622E-03 0.00000E+00 1.08328E-03
 -1        83 5.22321E-03 0.00000E+00 8.91485E-04
 -1        84 5.19588E-03 0.00000E+00 1.08347E-03
 -1        85 0.00000E+00 0.00000E+00 0.00000E+00
 -1        86 5.13885E-04 0.00000E+00 4.74095E-04
 -1        87 0.00000E+00 0.00000E+00 0.00000E+00
 -1        88 5.13942E-04 0.00000E+00 4.74087E-04
 -1        89 1.16403E-03 0.00000E+00 7.92954E-04
 -1        90 1.16402E-03 0.00000E+00 7.92961E-04
 -1        91 1.95281E-03 0.00000E+00 9.56491E-04
 -1        92 1.95280E-03 0.00000E+00 9.56508E-04
 -1        93 2.72497E-03 0.00000E+00 1.00884E-03
 -1        94 2.72498E-03 0.00000E+00 1.00886E-03
 -1        95 3.40290E-03 0.00000E+00 9.89838E-04
 -1        96 3.40284E-03 0.00000E+00 9.89833E-04
 -1        97 3.95100E-03 0.00000E+00 9.38377E-04
 -1        98 3.95099E-03 0.00000E+00 9.38371E-04
 -1        99 4.36816E-03 0.00000E+00 8.84099E-04
 -1       100 4.36819E-03 0.00000E+00 8.84083E-04
 -1       101 4.68732E-03 0.00000E+00 8.40439E-04
 -1       102 4.68732E-03 0.00000E+00 8.40421E-04
 -1       103 4.93220E-03 0.00000E+00 8.04382E-04
 -1       104 4.93221E-03 0.00000E+00 8.04384E-04
 -1       105 5.09814E-03 0.00000E+00 7.78647E-04
 -1       106 5.09818E-03 0.00000E+00 7.78659E-04
 -1       107 5.20020E-03 0.00000E+00 7.78813E-04
 -1       108 5.20022E-03 0.00000E+00 7.78831E-04
 -1       109 5.29240E-03 0.00000E+00 8.07159E-04
 -1       110 5.29244E-03 0.00000E+00 8.07178E-04
 -1       111 5.41154E-03 0.00000E+00 8.39721E-04
 -1       112 5.41162E-03 0.00000E+00 8.39714E-04
 -1       113 5.53746E-03 0.00000E+00 8.51789E-04
 -1       114 5.53752E-03 0.00000E+00 8.51773E-04
 -1       115 5.63316E-03 0.00000E+00 8.37971E-04
 -1       116 5.63326E-03 0.00000E+00 8.37956E-04
 -1       117 5.67131E-03 0.00000E+00 8.07905E-04
 -1       118 5.67148E-03 0.00000E+00 8.07906E-04
 -1       119 5.63561E-03 0.00000E+00 7.78039E-04
 -1       120 5.63578E-03 0.00000E+00 7.78211E-04
 -1       121 5.53556E-03 0.00000E+00 7.54073E-04
 -1       122 5.53579E-03 0.00000E+00 7.54020E-04
 -1       123 5.39423E-03 0.00000E+00 7.40106E-04
 -1       124 5.39448E-03 0.00000E+00 7.40069E-04
 -1       125 5.17138E-03 0.00000E+00 7.58795E-04
 -1       126 5.17110E-03 0.00000E+00 7.58735E-04
 -3
    1PSTEP                         2           1           2          
  100CL  101 1.10000E-01         126                     1    1           1
 -4  STRESS      6    1
 -5  SXX         1    4    1    1
 -5  SYY         1    4    2    2
 -5  SZZ         1    4    3    3
 -5  SXY         1    4    1    2
 -5  SYZ         1    4    2    3
 -5  SZX         1    4    3    1
 -1         1-1.36668E+03-1.38792E+03-3.21149E+03-3.44722E-05 9.27820E-05 1.30700E+03
 -1         2 3.93671E+02 3.78524E+02 8.73589E+02-8.83105E-06-6.14273E-05 1.16747E+03
 -1         3 1.17025E+01 2.33922E+02 7.71207E+02-4.77726E-02 5.59314E-03 4.93159E+02
 -1         4-3.99344E+02-7.62353E+02-2.12631E+03 7.24991E-02-4.56687E-04 4.81053E+02
 -1         5-1.36667E+03-1.38792E+03-3.21149E+03-3.46144E-05 9.27858E-05 1.30743E+03
 -1         6 3.93708E+02 3.78572E+02 8.73703E+02-8.81413E-06-6.14272E-05 1.16718E+03
 -1         7 1.21803E+01 2.34129E+02 7.71435E+02-4.77727E-02 5.59314E-03 4.93125E+02
 -1         8-3.96819E+02-7.61278E+02-2.12526E+03 7.24999E-02-4.56668E-04 4.81152E+02
 -1         9 5.57877E+01 2.63075E+02 8.24258E+02-1.52688E-02 3.29323E-03 4.44555E+02
 -1        10-3.64294E+02-3.43237E+02-7.76516E+02 4.61634E-02-3.66057E-03 3.02841E+02
 -1        11 5.62986E+01 2.63297E+02 8.24488E+02-1.52689E-02 3.29324E-03 4.44582E+02
 -1        12-3.62982E+02-3.42660E+02-7.75908E+02 4.61637E-02-3.66060E-03 3.02725E+02
 -1        13 5.64037E+01 2.43560E+02 7.58891E+02-3.12081E-02 6.95820E-03 3.15641E+02
 -1        14 2.09997E+01 1.48833E+02 4.77606E+02 4.88052E-02 4.42624E-03 2.56223E+02
 -1        15 5.69716E+01 2.43811E+02 7.59161E+02-3.12082E-02 6.95820E-03 3.15641E+02
 -1        16 2.26903E+01 1.49562E+02 4.78346E+02 4.88056E-02 4.42626E-03 2.56282E+02
 -1        17 5.72488E+01 2.22316E+02 6.86296E+02-1.04291E-02 6.30157E-03 1.97388E+02
 -1        18 2.04497E+02 4.27471E+02 1.22698E+03 7.27080E-02-1.99712E-03 1.66131E+02
 -1        19 5.79101E+01 2.22574E+02 6.86494E+02-1.04292E-02 6.30158E-03 1.97298E+02
 -1        20 2.06220E+02 4.28199E+02 1.22769E+03 7.27086E-02-1.99716E-03 1.66037E+02
 -1        21 5.61348E+01 1.98069E+02 6.05573E+02-4.58735E-02-3.13708E-03 8.88035E+01
 -1        22 3.10368E+02 5.64719E+02 1.58157E+03 3.63971E-02 3.98878E-04 8.78246E+01
 -1        23 5.67451E+01 1.98291E+02 6.05698E+02-4.58736E-02-3.13706E-03 8.87519E+01
 -1        24 3.12030E+02 5.65399E+02 1.58218E+03 3.63973E-02 3.98869E-04 8.77730E+01
 -1        25 5.71699E+01 1.74570E+02 5.25562E+02-2.95328E-02-9.59457E-03 5.40772E+00
 -1        26 3.39592E+02 5.79620E+02 1.60194E+03 5.05447E-02-1.44110E-02 2.15874E+01
 -1        27 5.77334E+01 1.74793E+02 5.25743E+02-2.95329E-02-9.59458E-03 5.48105E+00
 -1        28 3.41224E+02 5.80291E+02 1.60254E+03 5.05451E-02-1.44110E-02 2.16440E+01
 -1        29 6.10595E+01 1.54656E+02 4.54888E+02-9.33159E-03-1.04336E-02-3.49993E+01
 -1        30 3.27391E+02 5.24802E+02 1.42933E+03 6.62249E-02-1.02739E-02-1.45970E+01
 -1        31 6.16125E+01 1.54896E+02 4.55134E+02-9.33161E-03-1.04336E-02-3.50104E+01
 -1        32 3.29023E+02 5.25528E+02 1.43012E+03 6.62254E-02-1.02739E-02-1.46201E+01
 -1        33 6.41058E+01 1.39862E+02 4.02392E+02-3.09089E-02-8.61220E-03-3.25207E+01
 -1        34 3.00223E+02 4.58964E+02 1.23510E+03 4.35788E-02-3.25098E-03-1.73216E+01
 -1        35 6.45961E+01 1.40090E+02 4.02663E+02-3.09090E-02-8.61219E-03-3.25663E+01
 -1        36 3.01810E+02 4.59659E+02 1.23583E+03 4.35791E-02-3.25100E-03-1.73652E+01
 -1        37 6.46469E+01 1.30668E+02 3.71295E+02-2.98338E-02-3.35756E-03-3.93227E+01
 -1        38 2.65462E+02 4.01198E+02 1.07608E+03 4.19494E-02-3.84973E-03-2.57916E+01
 -1        39 6.50647E+01 1.30878E+02 3.71577E+02-2.98338E-02-3.35756E-03-3.93121E+01
 -1        40 2.66994E+02 4.01870E+02 1.07680E+03 4.19497E-02-3.84974E-03-2.57855E+01
 -1        41 6.45467E+01 1.25415E+02 3.53985E+02-2.23898E-02 3.25074E-03-7.34876E+01
 -1        42 2.16086E+02 3.20469E+02 8.54957E+02 4.72135E-02 3.03401E-03-5.41643E+01
 -1        43 6.48921E+01 1.25589E+02 3.54218E+02-2.23899E-02 3.25075E-03-7.35140E+01
 -1        44 2.17585E+02 3.21134E+02 8.55678E+02 4.72138E-02 3.03401E-03-5.41857E+01
 -1        45 6.64831E+01 1.21349E+02 3.38481E+02-3.54378E-02 6.56121E-03-7.73271E+01
 -1        46 1.60364E+02 2.14881E+02 5.57179E+02 3.57388E-02 5.24721E-03-5.82160E+01
 -1        47 6.67348E+01 1.21457E+02 3.38589E+02-3.54378E-02 6.56122E-03-7.73558E+01
 -1        48 1.61843E+02 2.15507E+02 5.57787E+02 3.57391E-02 5.24722E-03-5.82357E+01
 -1        49 7.14883E+01 1.17172E+02 3.19529E+02-2.75681E-02 3.23497E-03-2.03389E+01
 -1        50 1.30405E+02 1.47399E+02 3.61443E+02 4.37410E-02-3.00814E-05-1.51123E+01
 -1        51 7.16570E+01 1.17218E+02 3.19516E+02-2.75681E-02 3.23496E-03-2.03084E+01
 -1        52 1.31929E+02 1.48068E+02 3.62149E+02 4.37413E-02-3.00726E-05-1.50852E+01
 -1        53 7.69285E+01 1.13215E+02 3.00818E+02-1.53073E-02-3.42080E-03 4.21116E+01
 -1        54 1.45420E+02 1.63058E+02 3.98725E+02 5.15921E-02 1.13982E-02 3.17394E+01
 -1        55 7.69848E+01 1.13229E+02 3.00808E+02-1.53073E-02-3.42080E-03 4.20670E+01
 -1        56 1.46922E+02 1.63757E+02 3.99558E+02 5.15924E-02 1.13982E-02 3.17007E+01
 -1        57 7.90716E+01 1.08814E+02 2.83938E+02-5.73540E-02-6.70782E-04 6.27498E+01
 -1        58 1.89547E+02 2.31916E+02 5.84807E+02 1.50996E-03 2.21150E-02 4.76521E+01
 -1        59 7.88164E+01 1.08726E+02 2.83899E+02-5.73540E-02-6.70791E-04 6.27647E+01
 -1        60 1.90804E+02 2.32468E+02 5.85390E+02 1.50997E-03 2.21151E-02 4.76900E+01
 -1        61 8.46524E+01 1.05776E+02 2.68144E+02-4.05704E-02 4.80444E-03 4.86723E+01
 -1        62 2.39544E+02 3.00830E+02 7.65341E+02 1.88660E-02 1.67162E-02 3.91120E+01
 -1        63 8.42200E+01 1.05551E+02 2.67825E+02-4.05704E-02 4.80439E-03 4.88250E+01
 -1        64 2.40620E+02 3.01193E+02 7.65474E+02 1.88661E-02 1.67162E-02 3.93867E+01
 -1        65 9.65988E+01 1.08078E+02 2.63842E+02-3.09732E-02-1.63521E-02 7.50438E+00
 -1        66 2.78586E+02 3.38929E+02 8.53785E+02 6.91511E-02-1.59945E-02 5.68504E+00
 -1        67 9.64097E+01 1.08012E+02 2.63811E+02-3.09731E-02-1.63521E-02 7.34545E+00
 -1        68 2.80247E+02 3.39387E+02 8.53652E+02 6.91516E-02-1.59946E-02 5.47656E+00
 -1        69 8.88449E+01 1.03521E+02 2.56339E+02-7.71729E-02 1.05472E-02-3.16081E+01
 -1        70 2.82011E+02 3.38938E+02 8.50306E+02-5.12002E-02-8.16395E-02-2.87893E+01
 -1        71 8.76440E+01 1.03164E+02 2.56350E+02-7.71725E-02 1.05474E-02-3.20102E+01
 -1        72 2.82850E+02 3.39466E+02 8.51232E+02-5.12002E-02-8.16396E-02-2.94657E+01
 -1        73 9.52219E+01 1.04874E+02 2.54598E+02 4.81548E-03 4.50379E-02-5.90365E+01
 -1        74 2.06978E+02 2.65422E+02 6.79453E+02 2.86527E-02 5.02229E-02-1.77138E+01
 -1        75 9.41775E+01 1.04342E+02 2.53866E+02 4.81539E-03 4.50377E-02-5.90594E+01
 -1        76 2.07467E+02 2.65626E+02 6.79647E+02 2.86528E-02 5.02229E-02-1.75461E+01
 -1        77 4.96635E+01 6.47524E+01 1.66140E+02-1.62421E-01-2.28082E-02-4.95007E+01
 -1        78 3.33501E+02 2.87017E+02 6.24626E+02-6.24474E-03-8.35976E-02-7.44427E+01
 -1        79 4.80256E+01 6.39314E+01 1.65037E+02-1.62420E-01-2.28085E-02-4.89356E+01
 -1        80 3.36991E+02 2.88628E+02 6.26516E+02-6.24530E-03-8.35974E-02-7.54129E+01
 -1        81 1.76821E+02 9.84120E+01 1.51767E+02 2.57460E-01-1.63042E-03 1.02415E+01
 -1        82-1.98386E+01 1.40848E+02 4.90145E+02-1.72773E-01 9.64703E-02-3.43479E+00
 -1        83 1.76701E+02 9.84638E+01 1.52076E+02 2.57459E-01-1.62770E-03 1.31416E+01
 -1        84-2.72255E+01 1.38610E+02 4.90075E+02-1.72767E-01 9.64703E-02-3.85910E+00
 -1        85 2.21951E+03 2.18986E+03 5.19403E+03 2.78217E-05 3.72101E-05 1.63026E+03
 -1        86 4.12147E+02 1.22548E+03 3.72641E+03 2.92478E-02-4.27095E-03 6.03135E+02
 -1        87 2.21948E+03 2.18983E+03 5.19394E+03 2.78586E-05 3.72070E-05 1.63044E+03
 -1        88 4.10559E+02 1.22481E+03 3.72576E+03 2.92476E-02-4.27094E-03 6.03190E+02
 -1        89 4.25275E+02 8.27883E+02 2.35770E+03-1.73786E-03 3.70079E-03 3.20128E+02
 -1        90 4.25046E+02 8.27819E+02 2.35771E+03-1.73785E-03 3.70079E-03 3.20026E+02
 -1        91 8.13240E+01 3.32227E+02 1.03238E+03-3.97043E-03 8.79736E-03 2.50544E+02
 -1        92 8.07947E+01 3.32023E+02 1.03223E+03-3.97042E-03 8.79736E-03 2.50557E+02
 -1        93-9.46535E+01 1.54409E+01 1.47017E+02 5.17412E-03 1.25025E-02 1.41569E+02
 -1        94-9.50342E+01 1.52490E+01 1.46759E+02 5.17410E-03 1.25025E-02 1.41457E+02
 -1        95-2.00270E+02-1.69564E+02-3.64665E+02-2.90857E-02-2.53862E-03 5.68688E+01
 -1        96-2.00694E+02-1.69784E+02-3.64977E+02-2.90856E-02-2.53861E-03 5.68320E+01
 -1        97-2.24698E+02-2.29667E+02-5.40314E+02-6.03803E-03-2.73138E-03-6.45146E+00
 -1        98-2.25213E+02-2.29903E+02-5.40582E+02-6.03801E-03-2.73138E-03-6.36248E+00
 -1        99-2.01470E+02-2.11770E+02-5.04026E+02 1.38826E-02-8.28598E-03-3.53227E+01
 -1       100-2.01984E+02-2.12007E+02-5.04298E+02 1.38826E-02-8.28598E-03-3.53174E+01
 -1       101-1.67350E+02-1.74641E+02-4.14579E+02-3.67460E-04-8.79817E-03-3.04334E+01
 -1       102-1.67950E+02-1.74875E+02-4.14757E+02-3.67459E-04-8.79817E-03-3.04509E+01
 -1       103-1.33997E+02-1.37725E+02-3.24926E+02 7.15465E-03 1.04279E-03-3.29884E+01
 -1       104-1.34706E+02-1.37990E+02-3.25102E+02 7.15463E-03 1.04279E-03-3.29569E+01
 -1       105-8.82085E+01-7.09450E+01-1.48197E+02 1.84921E-02 6.10458E-03-5.76822E+01
 -1       106-8.90285E+01-7.12748E+01-1.48476E+02 1.84921E-02 6.10458E-03-5.76847E+01
 -1       107-3.00378E+01 2.50668E+01 1.13742E+02 1.17332E-02 9.53042E-03-6.02306E+01
 -1       108-3.10108E+01 2.46594E+01 1.13357E+02 1.17331E-02 9.53042E-03-6.02326E+01
 -1       109 1.09820E+01 8.53395E+01 2.73838E+02 2.34677E-02 9.89147E-03-1.63421E+01
 -1       110 9.85294E+00 8.48218E+01 2.73241E+02 2.34676E-02 9.89146E-03-1.62830E+01
 -1       111 7.22151E+00 6.22706E+01 2.00568E+02 4.44644E-02-3.60785E-03 3.18275E+01
 -1       112 5.88614E+00 6.16519E+01 1.99841E+02 4.44641E-02-3.60784E-03 3.18465E+01
 -1       113-3.38895E+01-1.66082E+01-2.14311E+01 2.92201E-02-8.14493E-03 4.83918E+01
 -1       114-3.57260E+01-1.74062E+01-2.22545E+01 2.92199E-02-8.14491E-03 4.84639E+01
 -1       115-6.80701E+01-8.69864E+01-2.21769E+02 5.33174E-02-7.76406E-03 4.00667E+01
 -1       116-7.00038E+01-8.77939E+01-2.22526E+02 5.33169E-02-7.76396E-03 4.03233E+01
 -1       117-7.30685E+01-1.10374E+02-2.94623E+02 8.95517E-02 2.87779E-04 8.25511E+00
 -1       118-7.51687E+01-1.11028E+02-2.94702E+02 8.95507E-02 2.87755E-04 8.26254E+00
 -1       119-7.59214E+01-1.03466E+02-2.68790E+02 8.91830E-02 8.80545E-02-3.43298E+01
 -1       120-7.95420E+01-1.05089E+02-2.70579E+02 8.91814E-02 8.80539E-02-3.47204E+01
 -1       121-1.93383E+01-5.80244E+01-1.74047E+02 1.14325E-01-2.72855E-02-4.84304E+01
 -1       122-2.21213E+01-5.94917E+01-1.76154E+02 1.14324E-01-2.72850E-02-4.78790E+01
 -1       123-1.20541E+02-4.49302E+01-2.89370E+01 1.28715E-01-1.91134E-02-1.20517E+02
 -1       124-1.26659E+02-4.75623E+01-3.15901E+01 1.28713E-01-1.91135E-02-1.21318E+02
 -1       125 6.45995E+02 3.25904E+02 4.42633E+02-1.44797E-01-3.09209E-02-2.78158E+02
 -1       126 6.54369E+02 3.29419E+02 4.46008E+02-1.44799E-01-3.09215E-02-2.79630E+02
 -3
    1PSTEP                         3           1           2          
  100CL  101 1.10000E-01         126                     1    1           1
 -4  TOSTRAIN    6    1
 -5  EXX         1    4    1    1
 -5  EYY         1    4    2    2
 -5  EZZ         1    4    3    3
 -5  EXY         1    4    1    2
 -5  EYZ         1    4    2    3
 -5  EZX         1    4    3    1
 -1         1-4.99579E-06-9.95351E-15-5.98303E-03-4.66405E-11-1.75387E-13 4.33356E-03
 -1         2-5.36424E-06-2.14178E-15 1.63754E-03 2.60107E-12-4.64553E-14 3.77646E-03
 -1         3-7.76568E-04 1.10198E-14 1.78760E-03-1.55510E-07 1.69809E-08 1.57587E-03
 -1         4 1.14051E-03 5.45300E-14-4.43774E-03 2.35584E-07 2.25592E-10 1.62181E-03
 -1         5-4.99697E-06-9.95351E-15-5.98304E-03-4.68245E-11-1.75386E-13 4.33497E-03
 -1         6-5.36526E-06-2.14178E-15 1.63775E-03 2.62261E-12-4.64551E-14 3.77553E-03
 -1         7-7.75723E-04 1.10198E-14 1.78767E-03-1.55510E-07 1.69809E-08 1.57576E-03
 -1         8 1.14521E-03 5.45300E-14-4.43781E-03 2.35585E-07 2.25726E-10 1.62216E-03
 -1         9-7.19156E-04-3.04359E-15 1.85863E-03-4.98084E-08 1.00350E-08 1.40573E-03
 -1        10-9.88132E-05 3.16683E-14-1.38638E-03 1.50275E-07-9.99811E-09 1.00383E-03
 -1        11-7.18219E-04-3.04359E-15 1.85866E-03-4.98084E-08 1.00350E-08 1.40583E-03
 -1        12-9.64119E-05 3.16683E-14-1.38628E-03 1.50275E-07-9.99815E-09 1.00348E-03
 -1        13-6.41120E-04 7.92322E-15 1.69744E-03-1.01792E-07 2.11466E-08 9.88313E-04
 -1        14-4.41508E-04 2.70553E-14 1.08754E-03 1.58373E-07 1.66029E-08 8.09265E-04
 -1        15-6.40089E-04 7.92322E-15 1.69750E-03-1.01792E-07 2.11466E-08 9.88325E-04
 -1        16-4.38385E-04 2.70553E-14 1.08758E-03 1.58374E-07 1.66030E-08 8.09496E-04
 -1        17-5.56528E-04-1.27428E-14 1.52059E-03-3.41885E-08 1.99560E-08 6.10516E-04
 -1        18-7.41030E-04 8.39340E-14 2.59686E-03 2.36348E-07-3.26498E-09 4.91137E-04
 -1        19-5.55207E-04-1.27428E-14 1.52039E-03-3.41885E-08 1.99560E-08 6.10242E-04
 -1        20-7.37784E-04 8.39340E-14 2.59678E-03 2.36349E-07-3.26504E-09 4.90878E-04
 -1        21-4.70634E-04 2.93844E-14 1.32916E-03-1.48939E-07-1.19561E-08 2.66019E-04
 -1        22-8.35146E-04 1.12661E-15 3.28762E-03 1.18263E-07 2.69908E-09 2.33817E-04
 -1        23-4.69358E-04 2.93844E-14 1.32885E-03-1.48939E-07-1.19561E-08 2.65871E-04
 -1        24-8.31940E-04 1.12661E-15 3.28737E-03 1.18263E-07 2.69903E-09 2.33690E-04
 -1        25-3.84144E-04 6.74233E-15 1.14058E-03-9.56561E-08-3.20543E-08 2.61202E-06
 -1        26-7.83046E-04 3.45193E-14 3.30028E-03 1.64691E-07-4.50137E-08 2.95613E-05
 -1        27-3.83039E-04 6.74233E-15 1.14044E-03-9.56562E-08-3.20544E-08 2.86151E-06
 -1        28-7.79922E-04 3.45193E-14 3.30008E-03 1.64691E-07-4.50136E-08 2.97756E-05
 -1        29-3.03797E-04-8.40638E-15 9.73911E-04-3.00615E-08-3.40946E-08-1.23198E-04
 -1        30-6.41764E-04 7.33658E-14 2.92050E-03 2.15406E-07-3.16136E-08-7.44466E-05
 -1        31-3.02777E-04-8.40638E-15 9.73930E-04-3.00616E-08-3.40946E-08-1.23226E-04
 -1        32-6.38818E-04 7.33658E-14 2.92071E-03 2.15407E-07-3.16136E-08-7.45001E-05
 -1        33-2.45761E-04 9.43720E-15 8.51817E-04-1.00279E-07-2.85506E-08-1.11862E-04
 -1        34-5.15768E-04 1.97411E-14 2.50813E-03 1.41653E-07-9.70227E-09-7.37024E-05
 -1        35-2.44905E-04 9.43720E-15 8.51952E-04-1.00279E-07-2.85505E-08-1.12005E-04
 -1        36-5.12865E-04 1.97411E-14 2.50825E-03 1.41654E-07-9.70233E-09-7.38260E-05
 -1        37-2.14340E-04 7.31969E-15 7.80615E-04-9.69009E-08-1.13199E-08-1.31816E-04
 -1        38-4.41047E-04 1.92274E-14 2.18229E-03 1.36355E-07-1.18814E-08-9.47661E-05
 -1        39-2.13662E-04 7.31969E-15 7.80846E-04-9.69010E-08-1.13199E-08-1.31779E-04
 -1        40-4.38249E-04 1.92274E-14 2.18241E-03 1.36355E-07-1.18814E-08-9.47342E-05
 -1        41-1.97092E-04-1.16075E-15 7.40695E-04-7.27847E-08 1.03300E-08-2.41174E-04
 -1        42-3.38664E-04 2.98686E-14 1.72920E-03 1.53379E-07 1.03080E-08-1.81681E-04
 -1        43-1.96532E-04-1.16075E-15 7.40888E-04-7.27847E-08 1.03300E-08-2.41258E-04
 -1        44-3.35950E-04 2.98686E-14 1.72938E-03 1.53380E-07 1.03080E-08-1.81742E-04
 -1        45-1.77393E-04 1.41390E-14 7.03468E-04-1.15201E-07 2.10294E-08-2.52834E-04
 -1        46-1.76399E-04 9.32178E-15 1.10848E-03 1.16091E-07 1.72995E-08-1.91583E-04
 -1        47-1.76925E-04 1.41390E-14 7.03468E-04-1.15201E-07 2.10294E-08-2.52926E-04
 -1        48-1.73624E-04 9.32178E-15 1.10842E-03 1.16091E-07 1.72995E-08-1.91639E-04
 -1        49-1.48324E-04 2.24501E-15 6.56334E-04-8.96086E-08 1.03029E-08-6.77517E-05
 -1        50-5.50720E-05 2.20694E-14 6.94215E-04 1.42122E-07 2.24967E-10-5.06556E-05
 -1        51-1.47928E-04 2.24501E-15 6.56141E-04-8.96086E-08 1.03028E-08-6.76515E-05
 -1        52-5.22911E-05 2.20694E-14 6.94335E-04 1.42122E-07 2.25014E-10-5.05617E-05
 -1        53-1.18636E-04-1.26239E-14 6.09468E-04-4.97142E-08-1.12240E-08 1.34952E-04
 -1        54-5.78199E-05 3.75964E-14 7.64918E-04 1.67536E-07 3.73848E-08 1.00974E-04
 -1        55-1.18498E-04-1.26239E-14 6.09391E-04-4.97143E-08-1.12240E-08 1.34809E-04
 -1        56-5.52129E-05 3.75964E-14 7.65347E-04 1.67536E-07 3.73847E-08 1.00853E-04
 -1        57-9.76995E-05 4.56810E-14 5.69384E-04-1.86372E-07-2.53118E-09 2.02273E-04
 -1        58-1.38447E-04-8.81027E-15 1.14441E-03 4.75236E-09 7.17751E-08 1.51862E-04
 -1        59-9.82411E-05 4.56810E-14 5.69543E-04-1.86372E-07-2.53110E-09 2.02320E-04
 -1        60-1.36153E-04-8.81027E-15 1.14451E-03 4.75243E-09 7.17752E-08 1.51989E-04
 -1        61-6.95017E-05 1.20212E-14 5.27931E-04-1.31859E-07 1.54721E-08 1.57232E-04
 -1        62-1.99810E-04-5.89533E-15 1.50496E-03 6.12258E-08 5.43098E-08 1.24659E-04
 -1        63-7.01744E-05 1.20212E-14 5.27626E-04-1.31859E-07 1.54720E-08 1.57727E-04
 -1        64-1.97493E-04-5.89533E-15 1.50422E-03 6.12259E-08 5.43099E-08 1.25552E-04
 -1        65-3.79818E-05-2.03697E-14 5.06350E-04-1.00643E-07-5.31227E-08 2.43557E-05
 -1        66-1.96661E-04 3.63313E-14 1.66729E-03 2.24653E-07-5.18785E-08 1.83909E-05
 -1        67-3.83803E-05-2.03697E-14 5.06462E-04-1.00643E-07-5.31227E-08 2.38408E-05
 -1        68-1.92758E-04 3.63313E-14 1.66538E-03 2.24654E-07-5.18787E-08 1.77160E-05
 -1        69-4.83866E-05 4.18220E-14 4.96995E-04-2.50740E-07 3.44759E-08-1.01934E-04
 -1        70-1.85578E-04 9.53509E-14 1.65624E-03-1.66660E-07-2.64602E-07-9.09326E-05
 -1        71-5.11283E-05 4.18220E-14 4.98189E-04-2.50739E-07 3.44758E-08-1.03236E-04
 -1        72-1.84570E-04 9.53509E-14 1.65753E-03-1.66660E-07-2.64602E-07-9.31211E-05
 -1        73-3.27591E-05-4.52805E-14 4.87304E-04 1.60138E-08 1.46255E-07-1.90390E-04
 -1        74-1.90340E-04 2.22855E-15 1.34176E-03 9.34801E-08 1.62714E-07-5.39533E-05
 -1        75-3.44264E-05-4.52805E-14 4.86661E-04 1.60139E-08 1.46254E-07-1.90465E-04
 -1        76-1.89411E-04 2.22855E-15 1.34172E-03 9.34801E-08 1.62714E-07-5.34173E-05
 -1        77-4.98166E-05 1.34961E-13 3.30378E-04-5.27992E-07-7.25833E-08-1.59762E-04
 -1        78 1.49245E-04 2.44345E-14 1.09589E-03-2.11121E-08-2.71276E-07-2.38343E-04
 -1        79-5.24519E-05 1.34961E-13 3.29452E-04-5.27991E-07-7.25847E-08-1.57926E-04
 -1        80 1.55327E-04 2.44345E-14 1.09681E-03-2.11129E-08-2.71276E-07-2.41499E-04
 -1        81 2.53960E-04 3.97827E-13 1.73022E-04 8.36361E-07-7.88726E-09 3.35269E-05
 -1        82-5.22416E-04 1.46886E-13 1.13290E-03-5.60479E-07 3.15187E-07-5.16103E-06
 -1        83 2.53426E-04 3.97827E-13 1.73797E-04 8.36360E-07-7.87935E-09 4.29568E-05
 -1        84-5.39173E-04 1.46886E-13 1.13994E-03-5.60471E-07 3.15187E-07-6.45341E-06
 -1        85-5.73269E-06 4.56585E-16 9.57365E-03 2.58311E-11-8.95497E-14 5.13873E-03
 -1        86-2.69365E-03-3.10806E-15 8.02682E-03 9.52854E-08-1.30581E-08 1.83862E-03
 -1        87-5.73356E-06 4.56585E-16 9.57349E-03 2.58798E-11-8.95498E-14 5.13930E-03
 -1        88-2.69665E-03-3.10806E-15 8.02689E-03 9.52851E-08-1.30581E-08 1.83878E-03
 -1        89-1.33950E-03-8.90113E-16 4.94009E-03-5.82302E-09 1.19186E-08 9.49276E-04
 -1        90-1.34003E-03-8.90113E-16 4.94033E-03-5.82299E-09 1.19186E-08 9.48939E-04
 -1        91-8.40732E-04-7.95707E-16 2.28342E-03-1.33440E-08 2.83261E-08 7.64910E-04
 -1        92-8.41793E-04-7.95707E-16 2.28359E-03-1.33440E-08 2.83261E-08 7.64934E-04
 -1        93-3.72026E-04 2.79000E-16 4.39184E-04 1.62228E-08 4.08182E-08 4.47816E-04
 -1        94-3.72631E-04 2.79000E-16 4.38957E-04 1.62228E-08 4.08182E-08 4.47447E-04
 -1        95-1.06121E-04 1.36754E-14-6.28655E-04-9.44762E-08-9.38664E-09 1.91011E-04
 -1        96-1.06775E-04 1.36754E-14-6.28955E-04-9.44761E-08-9.38661E-09 1.90889E-04
 -1        97 1.47584E-05-2.83602E-15-1.00976E-03-1.95589E-08-9.06753E-09-1.10723E-05
 -1        98 1.38448E-05-2.83602E-15-1.00987E-03-1.95589E-08-9.06755E-09-1.07901E-05
 -1        99 3.41688E-05 2.52610E-15-9.51612E-04 4.53230E-08-2.66230E-08-1.07503E-04
 -1       100 3.32640E-05 2.52610E-15-9.51729E-04 4.53230E-08-2.66230E-08-1.07492E-04
 -1       101 2.42451E-05-2.23247E-15-7.80892E-04-1.04668E-09-2.86374E-08-9.43858E-05
 -1       102 2.30540E-05-2.23247E-15-7.80711E-04-1.04668E-09-2.86375E-08-9.44511E-05
 -1       103 1.23674E-05-4.30063E-15-6.09134E-04 2.32309E-08 3.49439E-09-1.04641E-04
 -1       104 1.09256E-05-4.30063E-15-6.08841E-04 2.32309E-08 3.49439E-09-1.04546E-04
 -1       105-5.55205E-05 1.74667E-15-2.51925E-04 6.00478E-08 2.00315E-08-1.86811E-04
 -1       106-5.71146E-05 1.74667E-15-2.51759E-04 6.00477E-08 2.00315E-08-1.86825E-04
 -1       107-1.78386E-04-3.36213E-15 2.87054E-04 3.80722E-08 3.10502E-08-1.96673E-04
 -1       108-1.80225E-04-3.36213E-15 2.87128E-04 3.80722E-08 3.10502E-08-1.96684E-04
 -1       109-2.41576E-04 3.07959E-15 6.11517E-04 7.62057E-08 3.22908E-08-5.49344E-05
 -1       110-2.43566E-04 3.07959E-15 6.11262E-04 7.62056E-08 3.22908E-08-5.47470E-05
 -1       111-1.79452E-04 2.81974E-14 4.49394E-04 1.44541E-07-1.13960E-08 1.01931E-04
 -1       112-1.81783E-04 2.81974E-14 4.49043E-04 1.44541E-07-1.13960E-08 1.01988E-04
 -1       113-5.69522E-05-8.36192E-15-1.50130E-05 9.50198E-08-2.62843E-08 1.57120E-04
 -1       114-6.03290E-05-8.36192E-15-1.50941E-05 9.50195E-08-2.62843E-08 1.57349E-04
 -1       115 6.08070E-05 2.67700E-14-4.37740E-04 1.73315E-07-2.50361E-08 1.30826E-04
 -1       116 5.71447E-05 2.67700E-14-4.37574E-04 1.73315E-07-2.50359E-08 1.31658E-04
 -1       117 1.20698E-04 1.03444E-13-5.98960E-04 2.91042E-07 9.23082E-10 2.68712E-05
 -1       118 1.15997E-04 1.03444E-13-5.97090E-04 2.91040E-07 9.23179E-10 2.68971E-05
 -1       119 8.88050E-05 1.84665E-13-5.37130E-04 2.90226E-07 2.86007E-07-1.12411E-04
 -1       120 8.23130E-05 1.84665E-13-5.37668E-04 2.90223E-07 2.86007E-07-1.13680E-04
 -1       121 1.24822E-04 2.24910E-13-3.76326E-04 3.71307E-07-8.94425E-08-1.58631E-04
 -1       122 1.20558E-04 2.24910E-13-3.78417E-04 3.71305E-07-8.94422E-08-1.56835E-04
 -1       123-2.48878E-04 7.95359E-14 5.41271E-05 4.18073E-07-6.33023E-08-3.90586E-04
 -1       124-2.60231E-04 7.95359E-14 5.40728E-05 4.18070E-07-6.33028E-08-3.93164E-04
 -1       125 1.03034E-03-9.07423E-14 3.83631E-04-4.70504E-07-9.91140E-08-9.03306E-04
 -1       126 1.04602E-03-9.07423E-14 3.83204E-04-4.70507E-07-9.91149E-08-9.08101E-04
 -3
    1PSTEP                         4           1           2          
  100CL  101 1.10000E-01         126                     1    1           1
 -4  ERROR       1    1
 -5  STR(%)      1    1    0    0
 -1         1 7.85550E+01
 -1         2 7.85550E+01
 -1         3 8.98993E+01
 -1         4 8.98993E+01
 -1         5 7.85550E+01
 -1         6 7.85550E+01
 -1         7 8.98993E+01
 -1         8 8.98993E+01
 -1         9 8.98993E+01
 -1        10 8.98993E+01
 -1        11 8.98993E+01
 -1        12 8.98993E+01
 -1        13 4.46502E+01
 -1        14 4.46502E+01
 -1        15 4.46502E+01
 -1        16 4.46502E+01
 -1        17 7.81926E+01
 -1        18 2.67595E+01
 -1        19 7.81926E+01
 -1        20 2.67595E+01
 -1        21 1.00782E+02
 -1        22 3.35690E+01
 -1        23 1.00782E+02
 -1        24 3.35690E+01
 -1        25 1.00782E+02
 -1        26 3.44617E+01
 -1        27 1.00782E+02
 -1        28 3.44617E+01
 -1        29 1.00721E+02
 -1        30 3.44617E+01
 -1        31 1.00721E+02
 -1        32 3.44617E+01
 -1        33 9.85977E+01
 -1        34 3.39776E+01
 -1        35 9.85977E+01
 -1        36 3.39776E+01
 -1        37 9.61199E+01
 -1        38 3.30878E+01
 -1        39 9.61199E+01
 -1        40 3.30878E+01
 -1        41 9.38657E+01
 -1        42 3.09269E+01
 -1        43 9.38657E+01
 -1        44 3.09269E+01
 -1        45 5.64005E+01
 -1        46 1.92734E+01
 -1        47 5.64005E+01
 -1        48 1.92734E+01
 -1        49 4.89315E+00
 -1        50 3.01573E+00
 -1        51 4.89315E+00
 -1        52 3.01573E+00
 -1        53 3.31669E+01
 -1        54 1.05630E+01
 -1        55 3.31669E+01
 -1        56 1.05630E+01
 -1        57 8.22144E+01
 -1        58 2.77851E+01
 -1        59 8.22144E+01
 -1        60 2.77851E+01
 -1        61 9.31358E+01
 -1        62 3.50933E+01
 -1        63 9.31358E+01
 -1        64 3.50933E+01
 -1        65 9.31358E+01
 -1        66 3.50933E+01
 -1        67 9.31358E+01
 -1        68 3.50933E+01
 -1        69 8.80178E+01
 -1        70 3.55387E+01
 -1        71 8.80178E+01
 -1        72 3.55387E+01
 -1        73 9.72736E+01
 -1        74 3.55387E+01
 -1        75 9.72736E+01
 -1        76 3.55387E+01
 -1        77 9.72736E+01
 -1        78 5.72141E+01
 -1        79 9.72736E+01
 -1        80 5.72141E+01
 -1        81 5.72141E+01
 -1        82 5.72141E+01
 -1        83 5.72141E+01
 -1        84 5.72141E+01
 -1        85 5.22360E+01
 -1        86 5.22360E+01
 -1        87 5.22360E+01
 -1        88 5.22360E+01
 -1        89 3.52799E+01
 -1        90 3.52799E+01
 -1        91 1.76221E+01
 -1        92 1.76221E+01
 -1        93 7.81926E+01
 -1        94 7.81926E+01
 -1        95 1.00782E+02
 -1        96 1.00782E+02
 -1        97 1.00782E+02
 -1        98 1.00782E+02
 -1        99 1.00721E+02
 -1       100 1.00721E+02
 -1       101 9.85977E+01
 -1       102 9.85977E+01
 -1       103 9.61199E+01
 -1       104 9.61199E+01
 -1       105 9.38657E+01
 -1       106 9.38657E+01
 -1       107 5.64005E+01
 -1       108 5.64005E+01
 -1       109 4.89315E+00
 -1       110 4.89315E+00
 -1       111 3.31669E+01
 -1       112 3.31669E+01
 -1       113 8.22144E+01
 -1       114 8.22144E+01
 -1       115 9.31358E+01
 -1       116 9.31358E+01
 -1       117 9.31358E+01
 -1       118 9.31358E+01
 -1       119 8.80178E+01
 -1       120 8.80178E+01
 -1       121 9.72736E+01
 -1       122 9.72736E+01
 -1       123 9.72736E+01
 -1       124 9.72736E+01
 -1       125 5.24372E+01
 -1       126 5.24372E+01
 -3
    1PSTEP                         5           2           2          
  100CL  102 1.20000E-01         126                     1    2           1
 -4  DISP        4    1
 -5  D1          1    2    1    0
 -5  D2          1    2    2    0
 -5  D3          1    2    3    0
 -5  ALL         1    2    0    0    1ALL
 -1         1 0.00000E+00 0.00000E+00 0.00000E+00
 -1         2 0.00000E+00 0.00000E+00 0.00000E+00
 -1         3 3.89454E-04 0.00000E+00 9.25810E-05
 -1         4 4.43243E-04 0.00000E+00-3.22903E-04
 -1         5 0.00000E+00 0.00000E+00 0.00000E+00
 -1         6 0.00000E+00 0.00000E+00 0.00000E+00
 -1         7 3.89526E-04 0.00000E+00 9.25874E-05
 -1         8 4.43162E-04 0.00000E+00-3.22897E-04
 -1         9 1.16540E-03 0.00000E+00 1.97332E-04
 -1        10 1.15051E-03 0.00000E+00-4.95834E-04
 -1        11 1.16543E-03 0.00000E+00 1.97347E-04
 -1        12 1.15048E-03 0.00000E+00-4.95819E-04
 -1        13 2.06789E-03 0.00000E+00 2.86919E-04
 -1        14 2.03505E-03 0.00000E+00-5.16674E-04
 -1        15 2.06794E-03 0.00000E+00 2.86932E-04
 -1        16 2.03501E-03 0.00000E+00-5.16667E-04
 -1        17 2.97720E-03 0.00000E+00 3.64829E-04
 -1        18 2.92950E-03 0.00000E+00-4.39839E-04
 -1        19 2.97722E-03 0.00000E+00 3.64832E-04
 -1        20 2.92944E-03 0.00000E+00-4.39825E-04
 -1        21 3.80464E-03 0.00000E+00 4.32344E-04
 -1        22 3.75334E-03 0.00000E+00-3.07164E-04
 -1        23 3.80465E-03 0.00000E+00 4.32336E-04
 -1        24 3.75328E-03 0.00000E+00-3.07178E-04
 -1        25 4.52085E-03 0.00000E+00 4.91106E-04
 -1        26 4.47022E-03 0.00000E+00-1.51108E-04
 -1        27 4.52087E-03 0.00000E+00 4.91085E-04
 -1        28 4.47016E-03 0.00000E+00-1.51138E-04
 -1        29 5.12134E-03 0.00000E+00 5.43910E-04
 -1        30 5.07241E-03 0.00000E+00 1.40520E-05
 -1        31 5.12139E-03 0.00000E+00 5.43883E-04
 -1        32 5.07237E-03 0.00000E+00 1.40209E-05
 -1        33 5.59446E-03 0.00000E+00 5.92862E-04
 -1        34 5.54840E-03 0.00000E+00 1.81648E-04
 -1        35 5.59450E-03 0.00000E+00 5.92840E-04
 -1        36 5.54836E-03 0.00000E+00 1.81629E-04
 -1        37 5.93672E-03 0.00000E+00 6.38466E-04
 -1        38 5.89586E-03 0.00000E+00 3.41617E-04
 -1        39 5.93676E-03 0.00000E+00 6.38455E-04
 -1        40 5.89580E-03 0.00000E+00 3.41610E-04
 -1        41 6.15835E-03 0.00000E+00 6.80308E-04
 -1        42 6.12526E-03 0.00000E+00 4.81478E-04
 -1        43 6.15838E-03 0.00000E+00 6.80309E-04
 -1        44 6.12520E-03 0.00000E+00 4.81476E-04
 -1        45 6.28585E-03 0.00000E+00 7.18026E-04
 -1        46 6.26198E-03 0.00000E+00 5.90291E-04
 -1        47 6.28589E-03 0.00000E+00 7.18034E-04
 -1        48 6.26194E-03 0.00000E+00 5.90292E-04
 -1        49 6.36073E-03 0.00000E+00 7.52181E-04
 -1        50 6.34510E-03 0.00000E+00 6.65290E-04
 -1        51 6.36080E-03 0.00000E+00 7.52189E-04
 -1        52 6.34507E-03 0.00000E+00 6.65303E-04
 -1        53 6.42019E-03 0.00000E+00 7.83997E-04
 -1        54 6.40981E-03 0.00000E+00 7.14239E-04
 -1        55 6.42024E-03 0.00000E+00 7.84005E-04
 -1        56 6.40977E-03 0.00000E+00 7.14262E-04
 -1        57 6.48882E-03 0.00000E+00 8.14126E-04
 -1        58 6.47977E-03 0.00000E+00 7.53942E-04
 -1        59 6.48885E-03 0.00000E+00 8.14128E-04
 -1        60 6.47971E-03 0.00000E+00 7.53952E-04
 -1        61 6.55914E-03 0.00000E+00 8.43275E-04
 -1        62 6.54812E-03 0.00000E+00 8.05141E-04
 -1        63 6.55917E-03 0.00000E+00 8.43265E-04
 -1        64 6.54807E-03 0.00000E+00 8.05118E-04
 -1        65 6.59117E-03 0.00000E+00 8.73805E-04
 -1        66 6.57624E-03 0.00000E+00 8.77627E-04
 -1        67 6.59122E-03 0.00000E+00 8.73814E-04
 -1        68 6.57615E-03 0.00000E+00 8.77604E-04
 -1        69 6.56238E-03 0.00000E+00 9.04918E-04
 -1        70 6.54980E-03 0.00000E+00 9.65132E-04
 -1        71 6.56248E-03 0.00000E+00 9.04917E-04
 -1        72 6.54980E-03 0.00000E+00 9.65191E-04
 -1        73 6.46303E-03 0.00000E+00 9.33011E-04
 -1        74 6.45251E-03 0.00000E+00 1.04919E-03
 -1        75 6.46306E-03 0.00000E+00 9.32974E-04
 -1        76 6.45246E-03 0.00000E+00 1.04910E-03
 -1        77 6.31055E-03 0.00000E+00 9.64968E-04
 -1        78 6.32228E-03 0.00000E+00 1.10479E-03
 -1        79 6.31074E-03 0.00000E+00 9.64996E-04
 -1        80 6.32221E-03 0.00000E+00 1.10488E-03
 -1        81 6.16763E-03 0.00000E+00 9.80120E-04
 -1        82 6.12485E-03 0.00000E+00 1.16371E-03
 -1        83 6.16731E-03 0.00000E+00 9.80120E-04
 -1        84 6.12509E-03 0.00000E+00 1.16356E-03
 -1        85 0.00000E+00 0.00000E+00 0.00000E+00
 -1        86 5.48703E-04 0.00000E+00 5.21956E-04
 -1        87 0.00000E+00 0.00000E+00 0.00000E+00
 -1        88 5.48659E-04 0.00000E+00 5.21970E-04
 -1        89 1.25581E-03 0.00000E+00 8.85575E-04
 -1        90 1.25580E-03 0.00000E+00 8.85589E-04
 -1        91 2.13291E-03 0.00000E+00 1.08421E-03
 -1        92 2.13289E-03 0.00000E+00 1.08422E-03
 -1        93 3.01702E-03 0.00000E+00 1.16419E-03
 -1        94 3.01699E-03 0.00000E+00 1.16418E-03
 -1        95 3.82842E-03 0.00000E+00 1.16772E-03
 -1        96 3.82838E-03 0.00000E+00 1.16772E-03
 -1        97 4.53461E-03 0.00000E+00 1.13071E-03
 -1        98 4.53458E-03 0.00000E+00 1.13071E-03
 -1        99 5.12882E-03 0.00000E+00 1.07214E-03
 -1       100 5.12881E-03 0.00000E+00 1.07213E-03
 -1       101 5.59832E-03 0.00000E+00 1.00261E-03
 -1       102 5.59831E-03 0.00000E+00 1.00259E-03
 -1       103 5.93984E-03 0.00000E+00 9.33529E-04
 -1       104 5.93982E-03 0.00000E+00 9.33517E-04
 -1       105 6.16346E-03 0.00000E+00 8.77053E-04
 -1       106 6.16344E-03 0.00000E+00 8.77057E-04
 -1       107 6.29490E-03 0.00000E+00 8.43833E-04
 -1       108 6.29488E-03 0.00000E+00 8.43846E-04
 -1       109 6.37402E-03 0.00000E+00 8.37557E-04
 -1       110 6.37400E-03 0.00000E+00 8.37563E-04
 -1       111 6.43577E-03 0.00000E+00 8.52155E-04
 -1       112 6.43573E-03 0.00000E+00 8.52146E-04
 -1       113 6.50236E-03 0.00000E+00 8.72448E-04
 -1       114 6.50228E-03 0.00000E+00 8.72438E-04
 -1       115 6.56792E-03 0.00000E+00 8.80465E-04
 -1       116 6.56784E-03 0.00000E+00 8.80480E-04
 -1       117 6.59589E-03 0.00000E+00 8.70023E-04
 -1       118 6.59581E-03 0.00000E+00 8.70066E-04
 -1       119 6.56536E-03 0.00000E+00 8.47629E-04
 -1       120 6.56529E-03 0.00000E+00 8.47583E-04
 -1       121 6.46336E-03 0.00000E+00 8.33193E-04
 -1       122 6.46328E-03 0.00000E+00 8.33256E-04
 -1       123 6.33487E-03 0.00000E+00 8.38317E-04
 -1       124 6.33468E-03 0.00000E+00 8.38336E-04
 -1       125 6.11400E-03 0.00000E+00 8.63564E-04
 -1       126 6.11426E-03 0.00000E+00 8.63596E-04
 -3
    1PSTEP                         6           2           2          
  100CL  102 1.20000E-01         126                     1    2           1
 -4  STRESS      6    1
 -5  SXX         1    4    1    1
 -5  SYY         1    4    2    2
 -5  SZZ         1    4    3    3
 -5  SXY         1    4    1    2
 -5  SYZ         1    4    2    3
 -5  SZX         1    4    3    1
 -1         1-1.46397E+03-1.48601E+03-3.43683E+03 2.32933E-05-5.81662E-05 1.33482E+03
 -1         2 4.49578E+02 4.33869E+02 1.00129E+03 2.09088E-05 5.22440E-05 1.20449E+03
 -1         3-5.72025E+01 2.37444E+02 8.52521E+02 3.70398E-02 3.40923E-03 4.98911E+02
 -1         4-5.18771E+02-8.72536E+02-2.37159E+03-4.15292E-02 3.26286E-03 4.79156E+02
 -1         5-1.46395E+03-1.48598E+03-3.43677E+03 2.32400E-05-5.81650E-05 1.33457E+03
 -1         6 4.49619E+02 4.33901E+02 1.00136E+03 2.09146E-05 5.22445E-05 1.20471E+03
 -1         7-5.73730E+01 2.37396E+02 8.52520E+02 3.70398E-02 3.40923E-03 4.98943E+02
 -1         8-5.20396E+02-8.73216E+02-2.37222E+03-4.15289E-02 3.26286E-03 4.79103E+02
 -1         9-1.79365E+01 2.60394E+02 8.89371E+02 1.40928E-02 7.84724E-03 4.65392E+02
 -1        10-5.16426E+02-4.64855E+02-1.02868E+03-1.86639E-02 7.47395E-03 3.11132E+02
 -1        11-1.80861E+01 2.60339E+02 8.89337E+02 1.40927E-02 7.84724E-03 4.65358E+02
 -1        12-5.17111E+02-4.65150E+02-1.02898E+03-1.86639E-02 7.47394E-03 3.11197E+02
 -1        13-2.11138E+01 2.28337E+02 7.86056E+02 2.52006E-02 6.74205E-03 3.32370E+02
 -1        14-1.08970E+02 4.38927E+01 2.57116E+02-1.97186E-02 3.37660E-03 2.67558E+02
 -1        15-2.12873E+01 2.28248E+02 7.85931E+02 2.52005E-02 6.74204E-03 3.32355E+02
 -1        16-1.09914E+02 4.34878E+01 2.56711E+02-1.97185E-02 3.37660E-03 2.67508E+02
 -1        17-2.37685E+01 1.98331E+02 6.87662E+02 1.16245E-02 1.91959E-03 2.10708E+02
 -1        18 8.00035E+01 3.27436E+02 1.01650E+03-2.97978E-02 7.47248E-03 1.75945E+02
 -1        19-2.39605E+01 1.98221E+02 6.87488E+02 1.16245E-02 1.91959E-03 2.10691E+02
 -1        20 7.90872E+01 3.27017E+02 1.01602E+03-2.97977E-02 7.47247E-03 1.75949E+02
 -1        21-2.26197E+01 1.71001E+02 5.94280E+02 6.89699E-03-3.84769E-03 1.10726E+02
 -1        22 2.03963E+02 4.82375E+02 1.41192E+03-3.05944E-02-6.89634E-03 1.04531E+02
 -1        23-2.27753E+01 1.70902E+02 5.94104E+02 6.89699E-03-3.84769E-03 1.10711E+02
 -1        24 2.03077E+02 4.81937E+02 1.41134E+03-3.05943E-02-6.89633E-03 1.04518E+02
 -1        25-2.27559E+01 1.48054E+02 5.17127E+02 1.17927E-02-1.08624E-02 5.73004E+01
 -1        26 2.62748E+02 5.46865E+02 1.56938E+03-2.88030E-02-1.54411E-02 6.21231E+01
 -1        27-2.29086E+01 1.47961E+02 5.16972E+02 1.17927E-02-1.08624E-02 5.73160E+01
 -1        28 2.61859E+02 5.46461E+02 1.56892E+03-2.88029E-02-1.54411E-02 6.21301E+01
 -1        29-2.39921E+01 1.31126E+02 4.61560E+02 2.39999E-02-1.43242E-02 2.65120E+01
 -1        30 2.86093E+02 5.68611E+02 1.61893E+03-2.02011E-02-1.61041E-02 3.57152E+01
 -1        31-2.41579E+01 1.31052E+02 4.61484E+02 2.39999E-02-1.43242E-02 2.65279E+01
 -1        32 2.85194E+02 5.68240E+02 1.61859E+03-2.02010E-02-1.61041E-02 3.57280E+01
 -1        33-2.39664E+01 1.18703E+02 4.19953E+02 2.35643E-02-1.14938E-02-6.77113E+00
 -1        34 2.86861E+02 5.59162E+02 1.58622E+03-2.21495E-02-9.98421E-03 6.94553E+00
 -1        35-2.41162E+01 1.18661E+02 4.19965E+02 2.35643E-02-1.14938E-02-6.78558E+00
 -1        36 2.85958E+02 5.58807E+02 1.58593E+03-2.21494E-02-9.98420E-03 6.93134E+00
 -1        37-2.16320E+01 1.08218E+02 3.82635E+02 1.70660E-02-5.41192E-03-4.19858E+01
 -1        38 2.65551E+02 5.11351E+02 1.44665E+03-2.88356E-02-3.94141E-03-2.25432E+01
 -1        39-2.17666E+01 1.08191E+02 3.82681E+02 1.70660E-02-5.41192E-03-4.19972E+01
 -1        40 2.64629E+02 5.10978E+02 1.44633E+03-2.88355E-02-3.94141E-03-2.25509E+01
 -1        41-1.64943E+01 9.87900E+01 3.46105E+02 1.71785E-02 6.30455E-04-7.08674E+01
 -1        42 2.23357E+02 4.24573E+02 1.19726E+03-2.82510E-02-1.28138E-03-4.68186E+01
 -1        43-1.66074E+01 9.87651E+01 3.46137E+02 1.71785E-02 6.30455E-04-7.08575E+01
 -1        44 2.22426E+02 4.24186E+02 1.19690E+03-2.82509E-02-1.28139E-03-4.68071E+01
 -1        45-9.33776E+00 9.11606E+01 3.13542E+02 2.31705E-02 3.89543E-03-7.84257E+01
 -1        46 1.69370E+02 3.15341E+02 8.84790E+02-2.16693E-02 6.62652E-04-5.41269E+01
 -1        47-9.40667E+00 9.11400E+01 3.13542E+02 2.31705E-02 3.89543E-03-7.83947E+01
 -1        48 1.68468E+02 3.14977E+02 8.84475E+02-2.16692E-02 6.62648E-04-5.41001E+01
 -1        49-2.56783E+00 8.60761E+01 2.89832E+02 3.31050E-02 4.16138E-03-5.81820E+01
 -1        50 1.18630E+02 2.14459E+02 5.97648E+02-1.31947E-02 7.10080E-03-3.96374E+01
 -1        51-2.60020E+00 8.60625E+01 2.89820E+02 3.31050E-02 4.16139E-03-5.81595E+01
 -1        52 1.17709E+02 2.14094E+02 5.97351E+02-1.31946E-02 7.10079E-03-3.96165E+01
 -1        53 3.90421E+00 8.34762E+01 2.74678E+02 2.64813E-02 4.04794E-03-1.49644E+01
 -1        54 9.35262E+01 1.57101E+02 4.30860E+02-2.07696E-02 1.20157E-02-7.25020E+00
 -1        55 3.87814E+00 8.34578E+01 2.74643E+02 2.64813E-02 4.04794E-03-1.49618E+01
 -1        56 9.25247E+01 1.56666E+02 4.30412E+02-2.07695E-02 1.20157E-02-7.24150E+00
 -1        57 1.58823E+01 8.50598E+01 2.67950E+02 1.74816E-02 1.32127E-03 3.16489E+01
 -1        58 1.12974E+02 1.68363E+02 4.49009E+02-2.63085E-02 4.89767E-03 2.78731E+01
 -1        59 1.59458E+01 8.50627E+01 2.67896E+02 1.74816E-02 1.32127E-03 3.16471E+01
 -1        60 1.11947E+02 1.67862E+02 4.48363E+02-2.63084E-02 4.89766E-03 2.78831E+01
 -1        61 3.15458E+01 9.22396E+01 2.76203E+02 1.58547E-02-5.41318E-03 4.17330E+01
 -1        62 1.67008E+02 2.34664E+02 6.16662E+02-2.46133E-02-1.20485E-02 3.13294E+01
 -1        63 3.17318E+01 9.23278E+01 2.76311E+02 1.58547E-02-5.41318E-03 4.17020E+01
 -1        64 1.66085E+02 2.34226E+02 6.16123E+02-2.46132E-02-1.20484E-02 3.12288E+01
 -1        65 3.65742E+01 9.69366E+01 2.86796E+02 2.67847E-02 4.64700E-03 1.66845E+01
 -1        66 2.08431E+02 3.00236E+02 7.94657E+02-4.65251E-02-1.17675E-02 1.43435E+01
 -1        67 3.65342E+01 9.69315E+01 2.86819E+02 2.67847E-02 4.64700E-03 1.66869E+01
 -1        68 2.07084E+02 2.99768E+02 7.94444E+02-4.65248E-02-1.17676E-02 1.43220E+01
 -1        69 5.35972E+01 1.01102E+02 2.83644E+02 5.08489E-02-6.76684E-04-1.65126E+01
 -1        70 2.61010E+02 3.38081E+02 8.68635E+02 9.93653E-04 3.03974E-02-5.46724E+00
 -1        71 5.39220E+01 1.01180E+02 2.83578E+02 5.08490E-02-6.76645E-04-1.63868E+01
 -1        72 2.59823E+02 3.37491E+02 8.67852E+02 9.93669E-04 3.03973E-02-5.20539E+00
 -1        73 8.24541E+01 1.14804E+02 3.00551E+02 1.50269E-02-1.93177E-02-5.54848E+01
 -1        74 2.10812E+02 2.74814E+02 7.07049E+02-2.16545E-02-4.37455E-02 6.92354E+00
 -1        75 8.27671E+01 1.14977E+02 3.00814E+02 1.50269E-02-1.93177E-02-5.55803E+01
 -1        76 2.10118E+02 2.74558E+02 7.06890E+02-2.16544E-02-4.37455E-02 6.65864E+00
 -1        77 4.40257E+01 8.14759E+01 2.27661E+02 9.48126E-02 1.44661E-02-4.47277E+01
 -1        78 3.94270E+02 3.20316E+02 6.75127E+02-3.80020E-02 4.67479E-02-7.45377E+01
 -1        79 4.47267E+01 8.18264E+01 2.28131E+02 9.48128E-02 1.44660E-02-4.51633E+01
 -1        80 3.91345E+02 3.18989E+02 6.73619E+02-3.80019E-02 4.67479E-02-7.39177E+01
 -1        81 1.32073E+02 9.68657E+01 1.91591E+02-1.66324E-01 2.56803E-04 2.17221E+01
 -1        82-1.82579E+02 7.80328E+01 4.43622E+02 1.20051E-01-7.35740E-02-4.36578E+01
 -1        83 1.31821E+02 9.66894E+01 1.91242E+02-1.66324E-01 2.57746E-04 1.98866E+01
 -1        84-1.77672E+02 7.95178E+01 4.43658E+02 1.20053E-01-7.35738E-02-4.31434E+01
 -1        85 2.44367E+03 2.41026E+03 5.72643E+03-2.04584E-05-3.06569E-05 1.74567E+03
 -1        86 3.87584E+02 1.33784E+03 4.13773E+03-2.26275E-02 6.95683E-03 6.38175E+02
 -1        87 2.44372E+03 2.41032E+03 5.72657E+03-2.04363E-05-3.06588E-05 1.74553E+03
 -1        88 3.88857E+02 1.33841E+03 4.13834E+03-2.26276E-02 6.95684E-03 6.38145E+02
 -1        89 4.15785E+02 9.31352E+02 2.71948E+03-3.13473E-03 7.36041E-03 3.39736E+02
 -1        90 4.16142E+02 9.31502E+02 2.71963E+03-3.13472E-03 7.36041E-03 3.39790E+02
 -1        91 5.70010E+01 4.08228E+02 1.31307E+03-5.77142E-03 5.86436E-03 2.68332E+02
 -1        92 5.75906E+01 4.08449E+02 1.31322E+03-5.77144E-03 5.86436E-03 2.68294E+02
 -1        93-1.28563E+02 7.16899E+01 3.69287E+02-1.63936E-02-5.09107E-03 1.53440E+02
 -1        94-1.28014E+02 7.19044E+01 3.69453E+02-1.63936E-02-5.09107E-03 1.53432E+02
 -1        95-2.45859E+02-1.35401E+02-2.05239E+02-2.11488E-02-2.01336E-03 7.24004E+01
 -1        96-2.45263E+02-1.35140E+02-2.04969E+02-2.11488E-02-2.01336E-03 7.23813E+01
 -1        97-3.04059E+02-2.45711E+02-5.14511E+02-1.83685E-02-3.40164E-03 3.12160E+01
 -1        98-3.03455E+02-2.45470E+02-5.14313E+02-1.83685E-02-3.40164E-03 3.12192E+01
 -1        99-3.32434E+02-3.04214E+02-6.80611E+02-4.39509E-03-9.30820E-03 9.29384E+00
 -1       100-3.31873E+02-3.03995E+02-6.80441E+02-4.39510E-03-9.30820E-03 9.30506E+00
 -1       101-3.35705E+02-3.22416E+02-7.37737E+02-4.01527E-03-1.17936E-02-1.46250E+01
 -1       102-3.35112E+02-3.22154E+02-7.37457E+02-4.01527E-03-1.17937E-02-1.46433E+01
 -1       103-3.10423E+02-2.96473E+02-6.76705E+02-1.07926E-02-6.34442E-03-3.94199E+01
 -1       104-3.09777E+02-2.96161E+02-6.76313E+02-1.07927E-02-6.34443E-03-3.94431E+01
 -1       105-2.56681E+02-2.27385E+02-5.00643E+02-1.34058E-02 1.62886E-03-5.94952E+01
 -1       106-2.55981E+02-2.27052E+02-5.00234E+02-1.34059E-02 1.62886E-03-5.95101E+01
 -1       107-1.86684E+02-1.31740E+02-2.52280E+02-1.35198E-02 6.30204E-03-6.31858E+01
 -1       108-1.85908E+02-1.31404E+02-2.51936E+02-1.35198E-02 6.30204E-03-6.31909E+01
 -1       109-1.22953E+02-4.15614E+01-1.55287E+01-1.00339E-02 2.91377E-03-4.58792E+01
 -1       110-1.22097E+02-4.12216E+01-1.52539E+01-1.00340E-02 2.91377E-03-4.58905E+01
 -1       111-8.64999E+01 9.04264E+00 1.16765E+02-1.95424E-02-4.51186E-03-1.21394E+01
 -1       112-8.55710E+01 9.42013E+00 1.17094E+02-1.95425E-02-4.51186E-03-1.21679E+01
 -1       113-7.97858E+01 3.21133E+00 9.05821E+01-3.64342E-02-5.20528E-03 2.39502E+01
 -1       114-7.86001E+01 3.75093E+00 9.11945E+01-3.64344E-02-5.20529E-03 2.39250E+01
 -1       115-9.97089E+01-4.59203E+01-5.33296E+01-4.08870E-02 7.59193E-03 2.94984E+01
 -1       116-9.83929E+01-4.52846E+01-5.25277E+01-4.08873E-02 7.59197E-03 2.94078E+01
 -1       117-1.26562E+02-9.75770E+01-1.98630E+02-4.06307E-02 2.24745E-02 7.72980E+00
 -1       118-1.25285E+02-9.71088E+01-1.98347E+02-4.06309E-02 2.24745E-02 7.62556E+00
 -1       119-1.16358E+02-9.83908E+01-2.11485E+02-4.00755E-02-2.32917E-02-2.75573E+01
 -1       120-1.14405E+02-9.75285E+01-2.10565E+02-4.00759E-02-2.32917E-02-2.74356E+01
 -1       121-2.31515E+01-2.19383E+01-5.00182E+01-4.52059E-02 3.20583E-02-4.74432E+01
 -1       122-2.17353E+01-2.12462E+01-4.91268E+01-4.52062E-02 3.20585E-02-4.79177E+01
 -1       123-1.87294E+02-3.98637E+01 5.48756E+01-9.57218E-02 1.01915E-02-1.48119E+02
 -1       124-1.83374E+02-3.82232E+01 5.64211E+01-9.57226E-02 1.01915E-02-1.47559E+02
 -1       125 7.00888E+02 3.66513E+02 5.23633E+02 1.32717E-01 1.62781E-02-3.22119E+02
 -1       126 6.94638E+02 3.63877E+02 5.21069E+02 1.32715E-01 1.62782E-02-3.20837E+02
 -3
    1PSTEP                         7           2           2          
  100CL  102 1.20000E-01         126                     1    2           1
 -4  TOSTRAIN    6    1
 -5  EXX         1    4    1    1
 -5  EYY         1    4    2    2
 -5  EZZ         1    4    3    3
 -5  EXY         1    4    1    2
 -5  EYZ         1    4    2    3
 -5  EZX         1    4    3    1
 -1         1-5.86917E-06-2.48235E-15-6.40365E-03 3.93984E-11-1.85188E-13 4.43233E-03
 -1         2-6.40332E-06-2.01189E-15 1.87717E-03 3.63638E-11-2.40818E-13 3.89444E-03
 -1         3-1.02054E-03 1.06745E-14 2.04608E-03 1.20302E-07 1.20257E-08 1.58813E-03
 -1         4 1.10657E-03 1.33229E-14-4.87946E-03-1.35070E-07 9.61331E-09 1.62444E-03
 -1         5-5.86862E-06-2.48235E-15-6.40354E-03 3.93295E-11-1.85187E-13 4.43152E-03
 -1         6-6.40252E-06-2.01189E-15 1.87731E-03 3.63712E-11-2.40817E-13 3.89516E-03
 -1         7-1.02091E-03 1.06745E-14 2.04623E-03 1.20302E-07 1.20257E-08 1.58823E-03
 -1         8 1.10350E-03 1.33229E-14-4.87932E-03-1.35069E-07 9.61333E-09 1.62424E-03
 -1         9-9.58117E-04 2.49548E-15 2.08537E-03 4.53944E-08 2.60924E-08 1.46284E-03
 -1        10-2.03093E-04 4.48906E-15-1.80797E-03-6.10883E-08 2.34815E-08 1.03836E-03
 -1        11-9.58421E-04 2.49548E-15 2.08543E-03 4.53944E-08 2.60923E-08 1.46272E-03
 -1        12-2.04372E-04 4.48906E-15-1.80797E-03-6.10882E-08 2.34815E-08 1.03855E-03
 -1        13-8.50096E-04 8.58551E-15 1.84022E-03 8.15234E-08 2.31620E-08 1.03226E-03
 -1        14-5.27796E-04 1.15447E-15 7.18565E-04-6.42823E-08 9.93822E-09 8.48591E-04
 -1        15-8.50367E-04 8.58551E-15 1.84010E-03 8.15234E-08 2.31620E-08 1.03221E-03
 -1        16-5.29546E-04 1.15447E-15 7.18560E-04-6.42822E-08 9.93823E-09 8.48403E-04
 -1        17-7.46282E-04-2.03439E-15 1.60632E-03 3.76760E-08 6.83195E-09 6.44294E-04
 -1        18-8.24118E-04 1.33036E-14 2.24517E-03-9.72619E-08 2.26580E-08 5.19714E-04
 -1        19-7.46547E-04-2.03439E-15 1.60610E-03 3.76760E-08 6.83194E-09 6.44238E-04
 -1        20-8.25737E-04 1.33036E-14 2.24496E-03-9.72617E-08 2.26580E-08 5.19704E-04
 -1        21-6.41872E-04-2.76369E-15 1.38305E-03 2.26091E-08-1.21539E-08 3.28697E-04
 -1        22-9.16207E-04 1.53403E-14 3.01045E-03-9.90783E-08-2.37903E-08 2.79270E-04
 -1        23-6.42054E-04-2.76369E-15 1.38281E-03 2.26091E-08-1.21539E-08 3.28652E-04
 -1        24-9.17667E-04 1.53403E-14 3.01000E-03-9.90781E-08-2.37903E-08 2.79213E-04
 -1        25-5.61845E-04 3.82165E-16 1.20323E-03 3.87936E-08-3.47557E-08 1.63021E-04
 -1        26-9.29891E-04 1.63692E-14 3.30452E-03-9.29400E-08-5.11564E-08 1.45906E-04
 -1        27-5.62045E-04 3.82165E-16 1.20303E-03 3.87936E-08-3.47557E-08 1.63072E-04
 -1        28-9.31472E-04 1.63692E-14 3.30434E-03-9.29399E-08-5.11565E-08 1.45911E-04
 -1        29-5.08218E-04 1.13016E-14 1.07604E-03 7.85068E-08-4.56624E-08 6.91647E-05
 -1        30-9.22323E-04 6.93177E-15 3.39147E-03-6.50942E-08-5.27888E-08 6.94282E-05
 -1        31-5.08524E-04 1.13016E-14 1.07603E-03 7.85068E-08-4.56624E-08 6.92131E-05
 -1        32-9.24046E-04 6.93177E-15 3.39158E-03-6.50941E-08-5.27888E-08 6.94504E-05
 -1        33-4.65688E-04 9.34707E-15 9.79604E-04 7.68957E-08-3.66819E-08-3.38165E-05
 -1        34-8.87203E-04 4.86763E-15 3.31520E-03-7.17220E-08-3.28949E-08-1.21779E-05
 -1        35-4.66041E-04 9.34707E-15 9.79777E-04 7.68956E-08-3.66820E-08-3.38674E-05
 -1        36-8.88986E-04 4.86763E-15 3.31544E-03-7.17219E-08-3.28949E-08-1.22399E-05
 -1        37-4.22498E-04 1.48768E-15 8.91048E-04 5.55677E-08-1.72425E-08-1.43917E-04
 -1        38-7.99648E-04 1.03284E-14 3.01969E-03-9.36372E-08-1.33130E-08-9.54601E-05
 -1        39-4.22850E-04 1.48768E-15 8.91284E-04 5.55677E-08-1.72425E-08-1.43957E-04
 -1        40-8.01438E-04 1.03284E-14 3.01986E-03-9.36371E-08-1.33130E-08-9.54963E-05
 -1        41-3.74324E-04 8.19224E-16 8.02185E-04 5.58280E-08 2.26794E-09-2.34484E-04
 -1        42-6.53889E-04 9.53541E-15 2.49669E-03-9.17953E-08-4.51430E-09-1.63829E-04
 -1        43-3.74613E-04 8.19224E-16 8.02367E-04 5.58280E-08 2.26794E-09-2.34454E-04
 -1        44-6.55660E-04 9.53541E-15 2.49678E-03-9.17951E-08-4.51431E-09-1.63800E-04
 -1        45-3.26053E-04 5.49586E-15 7.21035E-04 7.52868E-08 1.28412E-08-2.57028E-04
 -1        46-4.74018E-04 2.54311E-15 1.84225E-03-7.04276E-08 1.97024E-09-1.81018E-04
 -1        47-3.26212E-04 5.49586E-15 7.21105E-04 7.52868E-08 1.28412E-08-2.56928E-04
 -1        48-4.75766E-04 2.54311E-15 1.84241E-03-7.04275E-08 1.97022E-09-1.80937E-04
 -1        49-2.87713E-04 1.62419E-14 6.60783E-04 1.07584E-07 1.37008E-08-1.90364E-04
 -1        50-3.11132E-04-3.16946E-15 1.24132E-03-4.29169E-08 2.29666E-08-1.31053E-04
 -1        51-2.87775E-04 1.62419E-14 6.60786E-04 1.07584E-07 1.37008E-08-1.90292E-04
 -1        52-3.12938E-04-3.16946E-15 1.24154E-03-4.29168E-08 2.29666E-08-1.30989E-04
 -1        53-2.58583E-04 7.05952E-15 6.20433E-04 8.60538E-08 1.32646E-08-4.97503E-05
 -1        54-2.06567E-04 3.79505E-15 8.87796E-04-6.75482E-08 3.89098E-08-2.50026E-05
 -1        55-2.58607E-04 7.05952E-15 6.20377E-04 8.60538E-08 1.32646E-08-4.97417E-05
 -1        56-2.08410E-04 3.79505E-15 8.87753E-04-6.75481E-08 3.89098E-08-2.49766E-05
 -1        57-2.25174E-04-2.25200E-15 5.93885E-04 5.68118E-08 4.35866E-09 1.01717E-04
 -1        58-1.80262E-04 7.72343E-15 9.10362E-04-8.55126E-08 1.57952E-08 8.90126E-05
 -1        59-2.24977E-04-2.25200E-15 5.93700E-04 5.68119E-08 4.35865E-09 1.01712E-04
 -1        60-1.81970E-04 7.72343E-15 9.09893E-04-8.55124E-08 1.57952E-08 8.90440E-05
 -1        61-1.97715E-04-3.20431E-15 5.97506E-04 5.15466E-08-1.75428E-08 1.34803E-04
 -1        62-2.20221E-04 8.94775E-15 1.23810E-03-7.99384E-08-3.91584E-08 1.00429E-04
 -1        63-1.97397E-04-3.20431E-15 5.97571E-04 5.15467E-08-1.75428E-08 1.34702E-04
 -1        64-2.21799E-04 8.94775E-15 1.23778E-03-7.99382E-08-3.91584E-08 1.00103E-04
 -1        65-1.96611E-04-3.41919E-15 6.16698E-04 8.70475E-08 1.50799E-08 5.42049E-05
 -1        66-2.98645E-04 2.19957E-14 1.60122E-03-1.51170E-07-3.81505E-08 4.66612E-05
 -1        67-1.96725E-04-3.41919E-15 6.16790E-04 8.70475E-08 1.50799E-08 5.42123E-05
 -1        68-3.01504E-04 2.19957E-14 1.60204E-03-1.51170E-07-3.81506E-08 4.65913E-05
 -1        69-1.55062E-04 3.13183E-14 5.93190E-04 1.65250E-07-2.37115E-09-5.26939E-05
 -1        70-2.50963E-04-8.55860E-15 1.71792E-03 3.33588E-09 9.85822E-08-1.53154E-05
 -1        71-1.54259E-04 3.13183E-14 5.92724E-04 1.65250E-07-2.37117E-09-5.22866E-05
 -1        72-2.52906E-04-8.55860E-15 1.71730E-03 3.33592E-09 9.85822E-08-1.44677E-05
 -1        73-1.06282E-04-1.16999E-14 6.03905E-04 4.86741E-08-6.28553E-08-1.78371E-04
 -1        74-2.07908E-04 2.25365E-14 1.40013E-03-7.06868E-08-1.41746E-07 2.60412E-05
 -1        75-1.05826E-04-1.16999E-14 6.04198E-04 4.86741E-08-6.28554E-08-1.78680E-04
 -1        76-2.09340E-04 2.25365E-14 1.40045E-03-7.06866E-08-1.41746E-07 2.51886E-05
 -1        77-1.22320E-04 3.13262E-14 4.75442E-04 3.08226E-07 4.61591E-08-1.43807E-04
 -1        78 2.38445E-04-1.50229E-14 1.15132E-03-1.22996E-07 1.52072E-07-2.38820E-04
 -1        79-1.21192E-04 3.13262E-14 4.75834E-04 3.08226E-07 4.61586E-08-1.45219E-04
 -1        80 2.33270E-04-1.50229E-14 1.15073E-03-1.22996E-07 1.52072E-07-2.36802E-04
 -1        81 1.13520E-04 1.56919E-13 3.06964E-04-5.40366E-07 2.38203E-09 7.18467E-05
 -1        82-8.48682E-04 8.18238E-14 1.18661E-03 3.89457E-07-2.40165E-07-1.34574E-04
 -1        83 1.13267E-04 1.56919E-13 3.06439E-04-5.40366E-07 2.38464E-09 6.58787E-05
 -1        84-8.37528E-04 8.18238E-14 1.18190E-03 3.89460E-07-2.40164E-07-1.32960E-04
 -1        85-6.93746E-06 1.17576E-16 1.05466E-02-7.81619E-12-2.65431E-13 5.48691E-03
 -1        86-3.14764E-03-7.86394E-16 8.97139E-03-7.38978E-08 2.17573E-08 1.92717E-03
 -1        87-6.93642E-06 1.17576E-16 1.05468E-02-7.78691E-12-2.65431E-13 5.48647E-03
 -1        88-3.14531E-03-7.86394E-16 8.97153E-03-7.38980E-08 2.17573E-08 1.92709E-03
 -1        89-1.71314E-03 1.77694E-16 5.76506E-03-1.05656E-08 2.35682E-08 9.85505E-04
 -1        90-1.71247E-03 1.77694E-16 5.76505E-03-1.05656E-08 2.35682E-08 9.85686E-04
 -1        91-1.17240E-03-2.31301E-15 2.94547E-03-1.91057E-08 1.86854E-08 7.99457E-04
 -1        92-1.17119E-03-2.31301E-15 2.94522E-03-1.91057E-08 1.86854E-08 7.99356E-04
 -1        93-6.68446E-04 2.86130E-15 9.79634E-04-5.30146E-08-1.73749E-08 4.70534E-04
 -1        94-6.67358E-04 2.86130E-15 9.79476E-04-5.30147E-08-1.73749E-08 4.70530E-04
 -1        95-3.67536E-04 6.72264E-15-2.19132E-04-6.86599E-08-7.55982E-09 2.33003E-04
 -1        96-3.66441E-04 6.72264E-15-2.19100E-04-6.86600E-08-7.55982E-09 2.32956E-04
 -1        97-1.93800E-04 3.56986E-15-8.70486E-04-5.95745E-08-1.18369E-08 1.10250E-04
 -1        98-1.92619E-04 3.56986E-15-8.70625E-04-5.95746E-08-1.18369E-08 1.10277E-04
 -1        99-9.41119E-05-1.08491E-15-1.22328E-03-1.39534E-08-3.04584E-08 4.21715E-05
 -1       100-9.30020E-05-1.08491E-15-1.22344E-03-1.39534E-08-3.04584E-08 4.22218E-05
 -1       101-4.41726E-05 4.81844E-16-1.35192E-03-1.27299E-08-3.85171E-08-3.69739E-05
 -1       102-4.30967E-05 4.81844E-16-1.35186E-03-1.27299E-08-3.85171E-08-3.70250E-05
 -1       103-4.53472E-05 3.25430E-16-1.23847E-03-3.49666E-08-2.08691E-08-1.21398E-04
 -1       104-4.42606E-05 3.25430E-16-1.23821E-03-3.49667E-08-2.08691E-08-1.21468E-04
 -1       105-9.47598E-05 4.05902E-16-8.90041E-04-4.35989E-08 5.12659E-09-1.90547E-04
 -1       106-9.35665E-05 4.05902E-16-8.89795E-04-4.35990E-08 5.12659E-09-1.90591E-04
 -1       107-1.78088E-04-1.14891E-16-3.92611E-04-4.39916E-08 2.03834E-08-2.04960E-04
 -1       108-1.76657E-04-1.14891E-16-3.92586E-04-4.39916E-08 2.03834E-08-2.04973E-04
 -1       109-2.64294E-04-4.51991E-15 8.42059E-05-3.26284E-08 9.41469E-09-1.49680E-04
 -1       110-2.62612E-04-4.51991E-15 8.39948E-05-3.26284E-08 9.41468E-09-1.49713E-04
 -1       111-3.10599E-04 6.22127E-17 3.49775E-04-6.35093E-08-1.47445E-08-4.03303E-05
 -1       112-3.08804E-04 6.22127E-17 3.49616E-04-6.35094E-08-1.47445E-08-4.04197E-05
 -1       113-2.70086E-04 1.75540E-14 2.83998E-04-1.18416E-07-1.70500E-08 7.71584E-05
 -1       114-2.67984E-04 1.75540E-14 2.84234E-04-1.18416E-07-1.70499E-08 7.70786E-05
 -1       115-1.75208E-04 2.40638E-14-2.37785E-05-1.32934E-07 2.45713E-08 9.57000E-05
 -1       116-1.72994E-04 2.40638E-14-2.32388E-05-1.32934E-07 2.45713E-08 9.54062E-05
 -1       117-9.45765E-05 2.50517E-14-3.28216E-04-1.32071E-07 7.30779E-08 2.50444E-05
 -1       118-9.19470E-05 2.50517E-14-3.28819E-04-1.32072E-07 7.30779E-08 2.47042E-05
 -1       119-5.91598E-05 7.89663E-15-3.67168E-04-1.30357E-07-7.55758E-08-8.99136E-05
 -1       120-5.56123E-05 7.89663E-15-3.66982E-04-1.30357E-07-7.55758E-08-8.95185E-05
 -1       121-4.65693E-06 3.97646E-14-9.04652E-05-1.46659E-07 1.04461E-07-1.54384E-04
 -1       122-2.31262E-06 3.97646E-14-8.98108E-05-1.46660E-07 1.04462E-07-1.55929E-04
 -1       123-4.83085E-04 4.70111E-14 3.10165E-04-3.10991E-07 3.38862E-08-4.79050E-04
 -1       124-4.75655E-04 4.70111E-14 3.09846E-04-3.10992E-07 3.38859E-08-4.77247E-04
 -1       125 1.07572E-03 1.86140E-14 5.14612E-04 4.31046E-07 5.18101E-08-1.04484E-03
 -1       126 1.06406E-03 1.86140E-14 5.14825E-04 4.31044E-07 5.18108E-08-1.04068E-03
 -3
    1PSTEP                         8           2           2          
  100CL  102 1.20000E-01         126                     1    2           1
 -4  ERROR       1    1
 -5  STR(%)      1    1    0    0
 -1         1 8.06619E+01
 -1         2 8.06619E+01
 -1         3 9.65179E+01
 -1         4 9.65179E+01
 -1         5 8.06619E+01
 -1         6 8.06619E+01
 -1         7 9.65179E+01
 -1         8 9.65179E+01
 -1         9 9.65179E+01
 -1        10 9.65179E+01
 -1        11 9.65179E+01
 -1        12 9.65179E+01
 -1        13 5.73974E+01
 -1        14 5.73974E+01
 -1        15 5.73974E+01
 -1        16 5.73974E+01
 -1        17 5.87782E+01
 -1        18 2.18935E+01
 -1        19 5.87782E+01
 -1        20 2.18935E+01
 -1        21 9.99361E+01
 -1        22 3.20016E+01
 -1        23 9.99361E+01
 -1        24 3.20016E+01
 -1        25 9.99361E+01
 -1        26 3.61986E+01
 -1        27 9.99361E+01
 -1        28 3.61986E+01
 -1        29 8.62338E+01
 -1        30 3.80414E+01
 -1        31 8.62338E+01
 -1        32 3.80414E+01
 -1        33 8.53726E+01
 -1        34 3.85937E+01
 -1        35 8.53726E+01
 -1        36 3.85937E+01
 -1        37 8.64867E+01
 -1        38 3.85937E+01
 -1        39 8.64867E+01
 -1        40 3.85937E+01
 -1        41 8.64867E+01
 -1        42 3.78116E+01
 -1        43 8.64867E+01
 -1        44 3.78116E+01
 -1        45 8.00294E+01
 -1        46 3.38082E+01
 -1        47 8.00294E+01
 -1        48 3.38082E+01
 -1        49 8.00294E+01
 -1        50 2.48691E+01
 -1        51 8.00294E+01
 -1        52 2.48691E+01
 -1        53 3.30232E+01
 -1        54 1.26612E+01
 -1        55 3.30232E+01
 -1        56 1.26612E+01
 -1        57 4.75361E+01
 -1        58 1.74495E+01
 -1        59 4.75361E+01
 -1        60 1.74495E+01
 -1        61 9.25605E+01
 -1        62 2.69913E+01
 -1        63 9.25605E+01
 -1        64 2.69913E+01
 -1        65 1.03754E+02
 -1        66 3.21093E+01
 -1        67 1.03754E+02
 -1        68 3.21093E+01
 -1        69 1.03754E+02
 -1        70 3.27059E+01
 -1        71 1.03754E+02
 -1        72 3.27059E+01
 -1        73 8.07723E+01
 -1        74 3.27059E+01
 -1        75 8.07723E+01
 -1        76 3.27059E+01
 -1        77 6.69816E+01
 -1        78 5.72021E+01
 -1        79 6.69816E+01
 -1        80 5.72021E+01
 -1        81 5.72021E+01
 -1        82 5.72021E+01
 -1        83 5.72021E+01
 -1        84 5.72021E+01
 -1        85 5.24118E+01
 -1        86 5.24118E+01
 -1        87 5.24118E+01
 -1        88 5.24118E+01
 -1        89 3.65273E+01
 -1        90 3.65273E+01
 -1        91 2.30276E+01
 -1        92 2.30276E+01
 -1        93 5.87782E+01
 -1        94 5.87782E+01
 -1        95 9.99361E+01
 -1        96 9.99361E+01
 -1        97 9.99361E+01
 -1        98 9.99361E+01
 -1        99 8.62338E+01
 -1       100 8.62338E+01
 -1       101 8.53726E+01
 -1       102 8.53726E+01
 -1       103 8.64867E+01
 -1       104 8.64867E+01
 -1       105 8.64867E+01
 -1       106 8.64867E+01
 -1       107 8.00294E+01
 -1       108 8.00294E+01
 -1       109 8.00294E+01
 -1       110 8.00294E+01
 -1       111 3.30232E+01
 -1       112 3.30232E+01
 -1       113 4.75361E+01
 -1       114 4.75361E+01
 -1       115 9.25605E+01
 -1       116 9.25605E+01
 -1       117 1.03754E+02
 -1       118 1.03754E+02
 -1       119 1.03754E+02
 -1       120 1.03754E+02
 -1       121 8.07723E+01
 -1       122 8.07723E+01
 -1       123 6.69816E+01
 -1       124 6.69816E+01
 -1       125 5.27443E+01
 -1       126 5.27443E+01
 -3
    1PSTEP                         9           3           2          
  100CL  103 1.30000E-01         126                     1    3           1
 -4  DISP        4    1
 -5  D1          1    2    1    0
 -5  D2          1    2    2    0
 -5  D3          1    2    3    0
 -5  ALL         1    2    0    0    1ALL
 -1         1 0.00000E+00 0.00000E+00 0.00000E+00
 -1         2 0.00000E+00 0.00000E+00 0.00000E+00
 -1         3 4.08478E-04 0.00000E+00 8.08843E-05
 -1         4 4.73565E-04 0.00000E+00-3.60941E-04
 -1         5 0.00000E+00 0.00000E+00 0.00000E+00
 -1         6 0.00000E+00 0.00000E+00 0.00000E+00
 -1         7 4.08449E-04 0.00000E+00 8.08756E-05
 -1         8 4.73572E-04 0.00000E+00-3.60941E-04
 -1         9 1.22133E-03 0.00000E+00 1.78497E-04
 -1        10 1.20838E-03 0.00000E+00-5.72257E-04
 -1        11 1.22133E-03 0.00000E+00 1.78488E-04
 -1        12 1.20836E-03 0.00000E+00-5.72254E-04
 -1        13 2.20005E-03 0.00000E+00 2.64951E-04
 -1        14 2.16841E-03 0.00000E+00-6.33846E-04
 -1        15 2.20003E-03 0.00000E+00 2.64935E-04
 -1        16 2.16840E-03 0.00000E+00-6.33839E-04
 -1        17 3.22967E-03 0.00000E+00 3.42981E-04
 -1        18 3.17858E-03 0.00000E+00-5.93684E-04
 -1        19 3.22963E-03 0.00000E+00 3.42965E-04
 -1        20 3.17853E-03 0.00000E+00-5.93692E-04
 -1        21 4.22414E-03 0.00000E+00 4.15676E-04
 -1        22 4.16322E-03 0.00000E+00-4.83668E-04
 -1        23 4.22415E-03 0.00000E+00 4.15672E-04
 -1        24 4.16322E-03 0.00000E+00-4.83673E-04
 -1        25 5.13295E-03 0.00000E+00 4.83937E-04
 -1        26 5.06679E-03 0.00000E+00-3.26555E-04
 -1        27 5.13294E-03 0.00000E+00 4.83945E-04
 -1        28 5.06677E-03 0.00000E+00-3.26542E-04
 -1        29 5.91856E-03 0.00000E+00 5.47909E-04
 -1        30 5.85033E-03 0.00000E+00-1.35542E-04
 -1        31 5.91851E-03 0.00000E+00 5.47920E-04
 -1        32 5.85028E-03 0.00000E+00-1.35539E-04
 -1        33 6.54193E-03 0.00000E+00 6.07624E-04
 -1        34 6.47624E-03 0.00000E+00 7.42929E-05
 -1        35 6.54193E-03 0.00000E+00 6.07629E-04
 -1        36 6.47625E-03 0.00000E+00 7.42841E-05
 -1        37 6.98308E-03 0.00000E+00 6.62371E-04
 -1        38 6.92558E-03 0.00000E+00 2.77213E-04
 -1        39 6.98308E-03 0.00000E+00 6.62367E-04
 -1        40 6.92559E-03 0.00000E+00 2.77208E-04
 -1        41 7.27498E-03 0.00000E+00 7.11320E-04
 -1        42 7.22730E-03 0.00000E+00 4.52480E-04
 -1        43 7.27497E-03 0.00000E+00 7.11307E-04
 -1        44 7.22729E-03 0.00000E+00 4.52465E-04
 -1        45 7.45731E-03 0.00000E+00 7.55055E-04
 -1        46 7.41791E-03 0.00000E+00 5.98950E-04
 -1        47 7.45732E-03 0.00000E+00 7.55041E-04
 -1        48 7.41793E-03 0.00000E+00 5.98938E-04
 -1        49 7.54128E-03 0.00000E+00 7.95090E-04
 -1        50 7.51060E-03 0.00000E+00 7.17192E-04
 -1        51 7.54126E-03 0.00000E+00 7.95088E-04
 -1        52 7.51061E-03 0.00000E+00 7.17192E-04
 -1        53 7.55621E-03 0.00000E+00 8.32775E-04
 -1        54 7.53478E-03 0.00000E+00 8.01150E-04
 -1        55 7.55616E-03 0.00000E+00 8.32784E-04
 -1        56 7.53477E-03 0.00000E+00 8.01128E-04
 -1        57 7.55454E-03 0.00000E+00 8.69893E-04
 -1        58 7.53865E-03 0.00000E+00 8.57548E-04
 -1        59 7.55454E-03 0.00000E+00 8.69898E-04
 -1        60 7.53871E-03 0.00000E+00 8.57514E-04
 -1        61 7.56041E-03 0.00000E+00 9.08737E-04
 -1        62 7.54464E-03 0.00000E+00 9.07647E-04
 -1        63 7.56038E-03 0.00000E+00 9.08750E-04
 -1        64 7.54465E-03 0.00000E+00 9.07647E-04
 -1        65 7.56795E-03 0.00000E+00 9.48767E-04
 -1        66 7.55190E-03 0.00000E+00 9.69705E-04
 -1        67 7.56790E-03 0.00000E+00 9.48788E-04
 -1        68 7.55191E-03 0.00000E+00 9.69756E-04
 -1        69 7.54139E-03 0.00000E+00 9.88501E-04
 -1        70 7.52902E-03 0.00000E+00 1.04447E-03
 -1        71 7.54138E-03 0.00000E+00 9.88487E-04
 -1        72 7.52915E-03 0.00000E+00 1.04451E-03
 -1        73 7.46678E-03 0.00000E+00 1.02814E-03
 -1        74 7.45051E-03 0.00000E+00 1.12498E-03
 -1        75 7.46673E-03 0.00000E+00 1.02813E-03
 -1        76 7.45055E-03 0.00000E+00 1.12503E-03
 -1        77 7.34378E-03 0.00000E+00 1.06614E-03
 -1        78 7.35875E-03 0.00000E+00 1.18635E-03
 -1        79 7.34377E-03 0.00000E+00 1.06614E-03
 -1        80 7.35892E-03 0.00000E+00 1.18635E-03
 -1        81 7.20928E-03 0.00000E+00 1.08227E-03
 -1        82 7.13732E-03 0.00000E+00 1.26203E-03
 -1        83 7.20936E-03 0.00000E+00 1.08227E-03
 -1        84 7.13723E-03 0.00000E+00 1.26209E-03
 -1        85 0.00000E+00 0.00000E+00 0.00000E+00
 -1        86 5.80695E-04 0.00000E+00 5.41267E-04
 -1        87 0.00000E+00 0.00000E+00 0.00000E+00
 -1        88 5.80740E-04 0.00000E+00 5.41270E-04
 -1        89 1.32657E-03 0.00000E+00 9.29316E-04
 -1        90 1.32660E-03 0.00000E+00 9.29305E-04
 -1        91 2.28484E-03 0.00000E+00 1.16039E-03
 -1        92 2.28488E-03 0.00000E+00 1.16036E-03
 -1        93 3.29143E-03 0.00000E+00 1.27706E-03
 -1        94 3.29145E-03 0.00000E+00 1.27704E-03
 -1        95 4.26983E-03 0.00000E+00 1.31269E-03
 -1        96 4.26990E-03 0.00000E+00 1.31268E-03
 -1        97 5.16471E-03 0.00000E+00 1.29209E-03
 -1        98 5.16476E-03 0.00000E+00 1.29208E-03
 -1        99 5.93859E-03 0.00000E+00 1.22884E-03
 -1       100 5.93860E-03 0.00000E+00 1.22885E-03
 -1       101 6.55451E-03 0.00000E+00 1.13778E-03
 -1       102 6.55456E-03 0.00000E+00 1.13779E-03
 -1       103 6.99392E-03 0.00000E+00 1.04372E-03
 -1       104 6.99396E-03 0.00000E+00 1.04371E-03
 -1       105 7.28698E-03 0.00000E+00 9.66376E-04
 -1       106 7.28701E-03 0.00000E+00 9.66358E-04
 -1       107 7.47110E-03 0.00000E+00 9.07663E-04
 -1       108 7.47115E-03 0.00000E+00 9.07642E-04
 -1       109 7.55897E-03 0.00000E+00 8.69446E-04
 -1       110 7.55900E-03 0.00000E+00 8.69426E-04
 -1       111 7.57913E-03 0.00000E+00 8.60880E-04
 -1       112 7.57912E-03 0.00000E+00 8.60890E-04
 -1       113 7.58061E-03 0.00000E+00 8.79110E-04
 -1       114 7.58064E-03 0.00000E+00 8.79136E-04
 -1       115 7.58564E-03 0.00000E+00 9.05958E-04
 -1       116 7.58564E-03 0.00000E+00 9.05968E-04
 -1       117 7.58820E-03 0.00000E+00 9.23547E-04
 -1       118 7.58815E-03 0.00000E+00 9.23502E-04
 -1       119 7.55962E-03 0.00000E+00 9.32649E-04
 -1       120 7.55960E-03 0.00000E+00 9.32585E-04
 -1       121 7.47739E-03 0.00000E+00 9.42324E-04
 -1       122 7.47733E-03 0.00000E+00 9.42288E-04
 -1       123 7.37895E-03 0.00000E+00 9.49041E-04
 -1       124 7.37903E-03 0.00000E+00 9.49061E-04
 -1       125 7.14047E-03 0.00000E+00 9.68045E-04
 -1       126 7.14027E-03 0.00000E+00 9.68075E-04
 -3
    1PSTEP                        10           3           2          
  100CL  103 1.30000E-01         126                     1    3           1
 -4  STRESS      6    1
 -5  SXX         1    4    1    1
 -5  SYY         1    4    2    2
 -5  SZZ         1    4    3    3
 -5  SXY         1    4    1    2
 -5  SYZ         1    4    2    3
 -5  SZX         1    4    3    1
 -1         1-1.63639E+03-1.66147E+03-3.83696E+03-1.67333E-06 5.08606E-06 1.42265E+03
 -1         2 3.97767E+02 3.80680E+02 8.74216E+02-1.31593E-05-2.20009E-05 1.26222E+03
 -1         3-1.03745E+02 1.92866E+02 7.49345E+02-1.44885E-02-4.53617E-03 4.96464E+02
 -1         4-5.68865E+02-9.94128E+02-2.72152E+03 3.43027E-03 5.93965E-05 4.84193E+02
 -1         5-1.63639E+03-1.66147E+03-3.83696E+03-1.67433E-06 5.08597E-06 1.42267E+03
 -1         6 3.97722E+02 3.80639E+02 8.74119E+02-1.31617E-05-2.20011E-05 1.26213E+03
 -1         7-1.03968E+02 1.92756E+02 7.49210E+02-1.44885E-02-4.53617E-03 4.96456E+02
 -1         8-5.68480E+02-9.93959E+02-2.72134E+03 3.43027E-03 5.93968E-05 4.84198E+02
 -1         9-9.57581E+01 2.15638E+02 8.16985E+02-9.87443E-04-4.44642E-03 4.54828E+02
 -1        10-6.65131E+02-6.30950E+02-1.43092E+03-7.17735E-03 1.71709E-03 2.89811E+02
 -1        11-9.60434E+01 2.15505E+02 8.16828E+02-9.87442E-04-4.44642E-03 4.54872E+02
 -1        12-6.65248E+02-6.30992E+02-1.43094E+03-7.17735E-03 1.71709E-03 2.89820E+02
 -1        13-9.97101E+01 1.94881E+02 7.52994E+02-7.54572E-03-8.35268E-03 3.38374E+02
 -1        14-2.47857E+02-1.13495E+02-1.29207E+02-6.17315E-03 3.57709E-03 2.66471E+02
 -1        15-1.00006E+02 1.94743E+02 7.52833E+02-7.54571E-03-8.35268E-03 3.38367E+02
 -1        16-2.47861E+02-1.13513E+02-1.29264E+02-6.17315E-03 3.57709E-03 2.66482E+02
 -1        17-1.07847E+02 1.75338E+02 6.95505E+02-2.31067E-02-8.15615E-03 2.44319E+02
 -1        18-5.51921E+01 1.97308E+02 7.16250E+02-2.69265E-02-4.31924E-03 1.94748E+02
 -1        19-1.08199E+02 1.75203E+02 6.95407E+02-2.31067E-02-8.15616E-03 2.44381E+02
 -1        20-5.52983E+01 1.97247E+02 7.16153E+02-2.69265E-02-4.31925E-03 1.94788E+02
 -1        21-1.12706E+02 1.58630E+02 6.43884E+02 6.34383E-03-2.00904E-03 1.71868E+02
 -1        22 9.49319E+01 4.14055E+02 1.29263E+03-6.17190E-04-2.32116E-03 1.49345E+02
 -1        23-1.13059E+02 1.58509E+02 6.43838E+02 6.34382E-03-2.00904E-03 1.71930E+02
 -1        24 9.48394E+01 4.14043E+02 1.29268E+03-6.17190E-04-2.32117E-03 1.49401E+02
 -1        25-1.13187E+02 1.42907E+02 5.91123E+02-5.40442E-03 4.15526E-03 1.22658E+02
 -1        26 1.99251E+02 5.61534E+02 1.68377E+03-8.29081E-03 6.68415E-03 1.14564E+02
 -1        27-1.13501E+02 1.42791E+02 5.91050E+02-5.40441E-03 4.15526E-03 1.22599E+02
 -1        28 1.99203E+02 5.61522E+02 1.68378E+03-8.29081E-03 6.68415E-03 1.14514E+02
 -1        29-1.13122E+02 1.26608E+02 5.36089E+02-2.33686E-02 5.37812E-03 7.32450E+01
 -1        30 2.67066E+02 6.55073E+02 1.93067E+03-2.21943E-02 1.27474E-03 7.74232E+01
 -1        31-1.13417E+02 1.26478E+02 5.35950E+02-2.33686E-02 5.37812E-03 7.32515E+01
 -1        32 2.67042E+02 6.55035E+02 1.93057E+03-2.21943E-02 1.27474E-03 7.74282E+01
 -1        33-1.11812E+02 1.10161E+02 4.79594E+02 4.03842E-04 2.58327E-03 4.75737E+00
 -1        34 2.91298E+02 6.76335E+02 1.97780E+03 1.70159E-03-4.54750E-03 2.23896E+01
 -1        35-1.12083E+02 1.10026E+02 4.79415E+02 4.03842E-04 2.58327E-03 4.79799E+00
 -1        36 2.91310E+02 6.76330E+02 1.97777E+03 1.70158E-03-4.54750E-03 2.24261E+01
 -1        37-1.06043E+02 9.49478E+01 4.22776E+02-5.57841E-04-2.11952E-03-4.95217E+01
 -1        38 2.76961E+02 6.21099E+02 1.80545E+03 3.99644E-03-3.02423E-03-2.39203E+01
 -1        39-1.06268E+02 9.48273E+01 4.22599E+02-5.57840E-04-2.11952E-03-4.95417E+01
 -1        40 2.77042E+02 6.21125E+02 1.80545E+03 3.99644E-03-3.02423E-03-2.39370E+01
 -1        41-9.75450E+01 8.20268E+01 3.71111E+02-9.37328E-03-6.76722E-03-5.99133E+01
 -1        42 2.39359E+02 5.28477E+02 1.53089E+03-1.98236E-03-7.77678E-03-3.59123E+01
 -1        43-9.77241E+01 8.19376E+01 3.70992E+02-9.37327E-03-6.76722E-03-5.98911E+01
 -1        44 2.39500E+02 5.28530E+02 1.53092E+03-1.98237E-03-7.77678E-03-3.58960E+01
 -1        45-8.94065E+01 7.26747E+01 3.31962E+02 5.45412E-03-7.04770E-03-6.47074E+01
 -1        46 1.90468E+02 4.31234E+02 1.25293E+03 1.14170E-02-6.06036E-03-4.30390E+01
 -1        47-8.95506E+01 7.26278E+01 3.31950E+02 5.45412E-03-7.04770E-03-6.46899E+01
 -1        48 1.90629E+02 4.31323E+02 1.25307E+03 1.14171E-02-6.06036E-03-4.30239E+01
 -1        49-8.00783E+01 6.82552E+01 3.08019E+02-8.57236E-03-9.59306E-04-8.19096E+01
 -1        50 1.37299E+02 3.25570E+02 9.51534E+02 9.91851E-04 1.95550E-04-5.94916E+01
 -1        51-8.01925E+01 6.82364E+01 3.08071E+02-8.57236E-03-9.59304E-04-8.19673E+01
 -1        52 1.37477E+02 3.25633E+02 9.51567E+02 9.91852E-04 1.95550E-04-5.95343E+01
 -1        53-6.59137E+01 7.03846E+01 3.00994E+02-2.43847E-02 4.72028E-03-7.14940E+01
 -1        54 9.33024E+01 2.25068E+02 6.58702E+02-4.99828E-03-1.10640E-02-5.41721E+01
 -1        55-6.59220E+01 7.03907E+01 3.01023E+02-2.43847E-02 4.72028E-03-7.15034E+01
 -1        56 9.36296E+01 2.25163E+02 6.58691E+02-4.99829E-03-1.10640E-02-5.41740E+01
 -1        57-5.04287E+01 7.85375E+01 3.12736E+02 4.76217E-03 2.77516E-03-2.67065E+01
 -1        58 7.47651E+01 1.72468E+02 5.01132E+02 3.18462E-02-1.74861E-02-2.28316E+01
 -1        59-5.02564E+01 7.86159E+01 3.12825E+02 4.76217E-03 2.77516E-03-2.67704E+01
 -1        60 7.53816E+01 1.72760E+02 5.01490E+02 3.18463E-02-1.74862E-02-2.29255E+01
 -1        61-3.86022E+01 8.74457E+01 3.30628E+02-1.51731E-02 6.47833E-03 2.32688E+01
 -1        62 8.89747E+01 1.86014E+02 5.32197E+02 4.16727E-03-2.40859E-04 1.70893E+01
 -1        63-3.84764E+01 8.75214E+01 3.30755E+02-1.51731E-02 6.47835E-03 2.31631E+01
 -1        64 8.95756E+01 1.86383E+02 5.32829E+02 4.16727E-03-2.40860E-04 1.69735E+01
 -1        65-1.11630E+01 1.00392E+02 3.46350E+02-2.51950E-02 1.12362E-02 4.17341E+01
 -1        66 1.42977E+02 2.41674E+02 6.64312E+02 6.72417E-03 2.60504E-02 4.04213E+01
 -1        67-1.09024E+01 1.00469E+02 3.46345E+02-2.51951E-02 1.12361E-02 4.19145E+01
 -1        68 1.43733E+02 2.42047E+02 6.64802E+02 6.72422E-03 2.60504E-02 4.06955E+01
 -1        69 1.89907E+01 1.12871E+02 3.57769E+02-4.06454E-03-7.07501E-03 1.62241E+01
 -1        70 2.25511E+02 3.01404E+02 7.81447E+02 6.56768E-02 1.91238E-02 1.59765E+01
 -1        71 1.96964E+01 1.13124E+02 3.57906E+02-4.06457E-03-7.07501E-03 1.63773E+01
 -1        72 2.26971E+02 3.02027E+02 7.82067E+02 6.56772E-02 1.91239E-02 1.61688E+01
 -1        73 3.59692E+01 1.18006E+02 3.57875E+02-2.62520E-02-8.09735E-03-2.33419E+01
 -1        74 1.53368E+02 2.53050E+02 6.91909E+02 1.82461E-02 2.53330E-02 3.56331E+01
 -1        75 3.65331E+01 1.18269E+02 3.58187E+02-2.62520E-02-8.09737E-03-2.32244E+01
 -1        76 1.54213E+02 2.53362E+02 6.92104E+02 1.82462E-02 2.53330E-02 3.58930E+01
 -1        77 1.84214E+01 7.96919E+01 2.47241E+02-8.96892E-03 1.01406E-03-3.12472E+01
 -1        78 4.80911E+02 3.86915E+02 8.11444E+02 8.52334E-02-5.66730E-04-1.12906E+02
 -1        79 1.88991E+01 7.99287E+01 2.47553E+02-8.96894E-03 1.01408E-03-3.10796E+01
 -1        80 4.82920E+02 3.87789E+02 8.12359E+02 8.52339E-02-5.66774E-04-1.13115E+02
 -1        81 6.13517E+01 6.88045E+01 1.69372E+02 4.02818E-02 4.36794E-03 3.80228E+01
 -1        82-4.17385E+02 2.14192E+01 4.90661E+02-4.79138E-02 3.16674E-02-1.29683E+02
 -1        83 6.19967E+01 6.90950E+01 1.69703E+02 4.02819E-02 4.36787E-03 3.83668E+01
 -1        84-4.18930E+02 2.09218E+01 4.90552E+02-4.79139E-02 3.16676E-02-1.30321E+02
 -1        85 2.53736E+03 2.50009E+03 5.94265E+03 3.55828E-05 3.57299E-05 1.84943E+03
 -1        86 3.56422E+02 1.38295E+03 4.32419E+03 2.31772E-02 1.75389E-03 6.54361E+02
 -1        87 2.53739E+03 2.50011E+03 5.94269E+03 3.55970E-05 3.57310E-05 1.84957E+03
 -1        88 3.55616E+02 1.38260E+03 4.32379E+03 2.31771E-02 1.75389E-03 6.54380E+02
 -1        89 4.03513E+02 1.00338E+03 2.97700E+03 1.84586E-02-5.86118E-03 3.35284E+02
 -1        90 4.03028E+02 1.00313E+03 2.97664E+03 1.84586E-02-5.86117E-03 3.35282E+02
 -1        91 3.26470E+01 4.93253E+02 1.62460E+03 1.98859E-02-1.60002E-02 2.84216E+02
 -1        92 3.20500E+01 4.92984E+02 1.62431E+03 1.98858E-02-1.60001E-02 2.84237E+02
 -1        93-1.65969E+02 1.52436E+02 6.77758E+02 9.61137E-03-1.04261E-02 1.88376E+02
 -1        94-1.66598E+02 1.52196E+02 6.77587E+02 9.61133E-03-1.04261E-02 1.88451E+02
 -1        95-3.24858E+02-9.84662E+01-2.56078E+00 3.87185E-02-4.19680E-03 1.24952E+02
 -1        96-3.25501E+02-9.87237E+01-2.77393E+00 3.87184E-02-4.19678E-03 1.25013E+02
 -1        97-4.29812E+02-2.77862E+02-4.95652E+02 2.42858E-02-2.97197E-03 8.00772E+01
 -1        98-4.30399E+02-2.78091E+02-4.95825E+02 2.42857E-02-2.97198E-03 8.00227E+01
 -1        99-4.97747E+02-4.04965E+02-8.50291E+02 5.23569E-03 5.26988E-03 4.04837E+01
 -1       100-4.98313E+02-4.05188E+02-8.50466E+02 5.23567E-03 5.26988E-03 4.04876E+01
 -1       101-5.19080E+02-4.59609E+02-1.01023E+03 2.46092E-02 4.98934E-03-1.02223E+01
 -1       102-5.19638E+02-4.59878E+02-1.01056E+03 2.46092E-02 4.98934E-03-1.01874E+01
 -1       103-4.90805E+02-4.32904E+02-9.49860E+02 2.13849E-02-6.04427E-03-4.80772E+01
 -1       104-4.91331E+02-4.33167E+02-9.50206E+02 2.13848E-02-6.04426E-03-4.80878E+01
 -1       105-4.33914E+02-3.63930E+02-7.77674E+02 1.29407E-02-9.01396E-03-5.13627E+01
 -1       106-4.34405E+02-3.64154E+02-7.77927E+02 1.29406E-02-9.01395E-03-5.13295E+01
 -1       107-3.68917E+02-2.85527E+02-5.81919E+02 2.76576E-02-1.09908E-02-5.13287E+01
 -1       108-3.69390E+02-2.85733E+02-5.82134E+02 2.76575E-02-1.09907E-02-5.12927E+01
 -1       109-2.97685E+02-1.89280E+02-3.32825E+02 1.68656E-02-1.04289E-02-6.25422E+01
 -1       110-2.98146E+02-1.89436E+02-3.32882E+02 1.68655E-02-1.04289E-02-6.25760E+01
 -1       111-2.24292E+02-8.34546E+01-5.36872E+01-2.61717E-03 5.43347E-03-5.31031E+01
 -1       112-2.24643E+02-8.35449E+01-5.36364E+01-2.61717E-03 5.43347E-03-5.31093E+01
 -1       113-1.76476E+02-1.62508E+01 1.22591E+02 1.61663E-02 1.30809E-02-1.83131E+01
 -1       114-1.76718E+02-1.63558E+01 1.22483E+02 1.61663E-02 1.30809E-02-1.83797E+01
 -1       115-1.68898E+02-1.38465E+01 1.23006E+02-4.19511E-03 4.93547E-03 2.02219E+01
 -1       116-1.69290E+02-1.41077E+01 1.22528E+02-4.19510E-03 4.93547E-03 2.01106E+01
 -1       117-1.56211E+02-3.17884E+01 5.03909E+01-2.39148E-02-2.30100E-02 3.75117E+01
 -1       118-1.56408E+02-3.19702E+01 4.99817E+01-2.39148E-02-2.30100E-02 3.76998E+01
 -1       119-1.52256E+02-4.04656E+01 1.74890E+01-9.82959E-03-3.29459E-02 1.27267E+00
 -1       120-1.52115E+02-4.03939E+01 1.75870E+01-9.82962E-03-3.29460E-02 1.40326E+00
 -1       121-7.52122E+01-1.04238E+01 4.04057E+01-3.20526E-02-1.87055E-02-1.39814E+01
 -1       122-7.48964E+01-1.01766E+01 4.09136E+01-3.20526E-02-1.87056E-02-1.37542E+01
 -1       123-3.14646E+02-1.00737E+02-2.03416E+01 4.47073E-02 1.04017E-02-1.58300E+02
 -1       124-3.15613E+02-1.01065E+02-2.04636E+01 4.47074E-02 1.04017E-02-1.58579E+02
 -1       125 8.36876E+02 4.08026E+02 5.26827E+02-1.06532E-01 1.55107E-02-3.83763E+02
 -1       126 8.40021E+02 4.09392E+02 5.28255E+02-1.06533E-01 1.55112E-02-3.84742E+02
 -3
    1PSTEP                        11           3           2          
  100CL  103 1.30000E-01         126                     1    3           1
 -4  TOSTRAIN    6    1
 -5  EXX         1    4    1    1
 -5  EYY         1    4    2    2
 -5  EZZ         1    4    3    3
 -5  EXY         1    4    1    2
 -5  EYZ         1    4    2    3
 -5  EZX         1    4    3    1
 -1         1-6.67059E-06 1.58752E-16-7.15442E-03-1.82754E-12 1.50606E-13 4.73555E-03
 -1         2-7.33331E-06-2.79721E-16 1.64494E-03-3.03356E-11 6.71602E-14 4.08467E-03
 -1         3-1.03242E-03 1.35974E-15 1.86400E-03-4.69037E-08-1.51134E-08 1.58093E-03
 -1         4 1.33659E-03-9.04960E-16-5.63357E-03 1.11262E-08 2.74120E-10 1.65670E-03
 -1         5-6.67048E-06 1.58752E-16-7.15442E-03-1.82884E-12 1.50606E-13 4.73561E-03
 -1         6-7.33386E-06-2.79721E-16 1.64476E-03-3.03387E-11 6.71603E-14 4.08439E-03
 -1         7-1.03280E-03 1.35974E-15 1.86391E-03-4.69037E-08-1.51134E-08 1.58090E-03
 -1         8 1.33729E-03-9.04960E-16-5.63354E-03 1.11262E-08 2.74119E-10 1.65672E-03
 -1         9-1.06995E-03-6.23653E-16 2.00220E-03-2.93799E-09-1.44918E-08 1.42552E-03
 -1        10-1.48345E-04 8.72035E-16-2.58008E-03-2.34420E-08 5.24458E-09 9.84929E-04
 -1        11-1.07045E-03-6.23653E-16 2.00213E-03-2.93799E-09-1.44918E-08 1.42566E-03
 -1        12-1.48591E-04 8.72035E-16-2.58001E-03-2.34420E-08 5.24458E-09 9.84952E-04
 -1        13-1.00284E-03 4.93030E-16 1.84753E-03-2.39824E-08-2.75259E-08 1.04408E-03
 -1        14-4.71367E-04-2.47012E-16-1.99501E-05-2.03022E-08 1.12516E-08 8.58698E-04
 -1        15-1.00335E-03 4.93030E-16 1.84745E-03-2.39824E-08-2.75258E-08 1.04405E-03
 -1        16-4.71323E-04-2.47012E-16-2.00751E-05-2.03022E-08 1.12516E-08 8.58739E-04
 -1        17-9.52893E-04 8.73198E-15 1.71316E-03-7.45882E-08-2.78418E-08 7.41173E-04
 -1        18-8.45918E-04 1.35676E-14 1.70202E-03-8.72501E-08-1.56329E-08 5.83111E-04
 -1        19-9.53608E-04 8.73198E-15 1.71329E-03-7.45881E-08-2.78418E-08 7.41360E-04
 -1        20-8.46070E-04 1.35676E-14 1.70191E-03-8.72501E-08-1.56329E-08 5.83240E-04
 -1        21-9.04254E-04-2.90139E-15 1.59183E-03 2.07430E-08-6.14480E-09 5.11786E-04
 -1        22-1.05597E-03-1.50875E-15 2.85331E-03-1.86793E-09-7.54956E-09 4.12049E-04
 -1        23-9.05023E-04-2.90139E-15 1.59207E-03 2.07430E-08-6.14479E-09 5.11968E-04
 -1        24-1.05624E-03-1.50875E-15 2.85353E-03-1.86793E-09-7.54957E-09 4.12220E-04
 -1        25-8.48101E-04-1.54790E-15 1.46706E-03-1.78099E-08 1.31848E-08 3.59875E-04
 -1        26-1.19139E-03 1.72378E-15 3.62991E-03-2.73062E-08 2.11719E-08 2.91205E-04
 -1        27-8.48740E-04-1.54790E-15 1.46720E-03-1.78098E-08 1.31848E-08 3.59673E-04
 -1        28-1.19150E-03 1.72378E-15 3.62997E-03-2.73062E-08 2.11720E-08 2.91042E-04
 -1        29-7.89630E-04 9.14338E-15 1.33750E-03-7.62353E-08 1.64158E-08 2.08306E-04
 -1        30-1.27091E-03 8.96359E-15 4.11634E-03-7.21682E-08 3.13870E-09 1.75750E-04
 -1        31-7.90164E-04 9.14338E-15 1.33747E-03-7.62353E-08 1.64158E-08 2.08320E-04
 -1        32-1.27087E-03 8.96359E-15 4.11613E-03-7.21682E-08 3.13869E-09 1.75769E-04
 -1        33-7.26418E-04-2.02497E-15 1.20280E-03 1.21489E-09 8.40377E-09-5.11766E-06
 -1        34-1.25671E-03-7.55174E-16 4.19458E-03 5.68790E-09-1.46328E-08 1.38936E-05
 -1        35-7.26864E-04-2.02497E-15 1.20266E-03 1.21489E-09 8.40377E-09-4.98966E-06
 -1        36-1.25665E-03-7.55174E-16 4.19451E-03 5.68790E-09-1.46328E-08 1.40110E-05
 -1        37-6.54250E-04-1.01356E-15 1.06481E-03-1.77008E-09-6.89695E-09-1.73730E-04
 -1        38-1.12015E-03 3.53011E-16 3.81762E-03 1.30615E-08-9.68271E-09-1.15185E-04
 -1        39-6.54590E-04-1.01356E-15 1.06463E-03-1.77008E-09-6.89695E-09-1.73796E-04
 -1        40-1.11997E-03 3.53011E-16 3.81756E-03 1.30615E-08-9.68271E-09-1.15237E-04
 -1        41-5.83815E-04 1.28006E-15 9.38635E-04-3.03755E-08-2.21218E-08-2.02101E-04
 -1        42-9.40282E-04 7.25672E-16 3.23478E-03-6.31219E-09-2.51960E-08-1.37438E-04
 -1        43-5.84106E-04 1.28006E-15 9.38539E-04-3.03755E-08-2.21218E-08-2.02029E-04
 -1        44-9.39994E-04 7.25672E-16 3.23472E-03-6.31219E-09-2.51960E-08-1.37384E-04
 -1        45-5.27229E-04-7.97886E-17 8.41761E-04 1.77894E-08-2.28214E-08-2.14093E-04
 -1        46-7.83103E-04 2.81769E-15 2.65479E-03 3.71581E-08-1.95056E-08-1.49762E-04
 -1        47-5.27546E-04-7.97886E-17 8.41874E-04 1.77894E-08-2.28214E-08-2.14037E-04
 -1        48-7.82870E-04 2.81769E-15 2.65495E-03 3.71581E-08-1.95056E-08-1.49713E-04
 -1        49-4.82457E-04-7.15615E-16 7.78056E-04-2.78697E-08-3.16173E-09-2.67597E-04
 -1        50-6.12191E-04-7.34664E-16 2.02482E-03 3.22464E-09 6.33962E-10-1.96543E-04
 -1        51-4.82767E-04-7.15615E-16 7.78284E-04-2.78697E-08-3.16172E-09-2.67784E-04
 -1        52-6.11818E-04-7.34664E-16 2.02472E-03 3.22464E-09 6.33960E-10-1.96680E-04
 -1        53-4.43252E-04 9.22246E-15 7.48259E-04-7.92761E-08 1.52745E-08-2.32600E-04
 -1        54-4.28325E-04-1.70946E-15 1.40456E-03-1.62299E-08-3.59068E-08-1.76503E-04
 -1        55-4.43298E-04 9.22246E-15 7.48332E-04-7.92761E-08 1.52745E-08-2.32631E-04
 -1        56-4.27569E-04-1.70946E-15 1.40422E-03-1.62299E-08-3.59068E-08-1.76509E-04
 -1        57-4.19442E-04-3.91700E-15 7.59881E-04 1.54811E-08 9.01219E-09-8.68675E-05
 -1        58-3.17599E-04 1.95987E-14 1.06550E-03 1.03503E-07-5.67257E-08-7.42881E-05
 -1        59-4.19137E-04-3.91700E-15 7.59915E-04 1.54811E-08 9.01220E-09-8.70754E-05
 -1        60-3.16542E-04 1.95987E-14 1.06571E-03 1.03503E-07-5.67257E-08-7.45932E-05
 -1        61-4.09955E-04 4.17438E-15 7.89018E-04-4.93259E-08 2.10317E-08 7.54944E-05
 -1        62-3.15463E-04-3.94730E-15 1.12217E-03 1.35442E-08-7.84505E-10 5.53144E-05
 -1        63-4.09792E-04 4.17438E-15 7.89183E-04-4.93260E-08 2.10317E-08 7.51518E-05
 -1        64-3.14708E-04-3.94730E-15 1.12301E-03 1.35442E-08-7.84511E-10 5.49385E-05
 -1        65-3.62804E-04 1.07633E-14 7.97973E-04-8.18852E-08 3.65315E-08 1.35885E-04
 -1        66-3.20849E-04 4.06383E-15 1.36916E-03 2.18693E-08 8.45130E-08 1.31593E-04
 -1        67-3.62206E-04 1.07633E-14 7.97708E-04-8.18852E-08 3.65315E-08 1.36471E-04
 -1        68-3.19604E-04 4.06383E-15 1.36953E-03 2.18693E-08 8.45130E-08 1.32480E-04
 -1        69-3.05349E-04-1.14619E-14 7.94619E-04-1.32253E-08-2.29414E-08 5.38494E-05
 -1        70-2.46813E-04 6.96844E-14 1.55451E-03 2.13443E-07 6.17937E-08 5.37272E-05
 -1        71-3.03876E-04-1.14619E-14 7.94242E-04-1.32253E-08-2.29414E-08 5.43455E-05
 -1        72-2.44093E-04 6.96844E-14 1.55450E-03 2.13443E-07 6.17937E-08 5.43481E-05
 -1        73-2.67135E-04 9.95429E-15 7.78664E-04-8.53650E-08-2.61238E-08-7.37778E-05
 -1        74-3.23502E-04-2.17487E-15 1.42119E-03 5.94575E-08 8.20688E-08 1.18687E-04
 -1        75-2.66152E-04 9.95429E-15 7.78821E-04-8.53651E-08-2.61238E-08-7.33976E-05
 -1        76-3.21764E-04-2.17487E-15 1.42080E-03 5.94576E-08 8.20688E-08 1.19526E-04
 -1        77-1.99171E-04-1.20805E-14 5.44504E-04-2.91303E-08 3.37109E-09-1.00021E-04
 -1        78 3.02076E-04 9.10746E-14 1.37697E-03 2.76817E-07-2.54784E-09-3.62633E-04
 -1        79-1.98383E-04-1.20805E-14 5.44743E-04-2.91304E-08 3.37116E-09-9.94803E-05
 -1        80 3.05747E-04 9.10746E-14 1.37710E-03 2.76818E-07-2.54806E-09-3.63314E-04
 -1        81-2.63512E-05-5.14114E-15 3.25838E-04 1.30909E-07 1.38331E-08 1.25443E-04
 -1        82-1.43206E-03-6.44241E-15 1.52415E-03-1.55345E-07 1.03242E-07-4.10733E-04
 -1        83-2.52089E-05-5.14114E-15 3.25963E-04 1.30909E-07 1.38328E-08 1.26560E-04
 -1        84-1.43550E-03-6.44241E-15 1.52542E-03-1.55345E-07 1.03243E-07-4.12785E-04
 -1        85-7.99603E-06-1.05702E-15 1.09430E-02 5.15140E-11 1.12381E-13 5.80682E-03
 -1        86-3.40143E-03 5.79024E-15 9.42112E-03 7.53137E-08 6.30723E-09 1.96329E-03
 -1        87-7.99724E-06-1.05702E-15 1.09431E-02 5.15328E-11 1.12382E-13 5.80728E-03
 -1        88-3.40290E-03 5.79024E-15 9.42100E-03 7.53136E-08 6.30725E-09 1.96334E-03
 -1        89-1.99155E-03 6.43720E-15 6.35704E-03 6.03111E-08-1.79905E-08 9.48047E-04
 -1        90-1.99231E-03 6.43720E-15 6.35670E-03 6.03111E-08-1.79905E-08 9.48038E-04
 -1        91-1.53431E-03 1.05213E-14 3.67679E-03 6.56775E-08-5.06030E-08 8.22122E-04
 -1        92-1.53538E-03 1.05213E-14 3.67670E-03 6.56774E-08-5.06030E-08 8.22175E-04
 -1        93-1.05987E-03-1.33815E-15 1.72140E-03 3.19274E-08-3.32179E-08 5.57624E-04
 -1        94-1.06115E-03-1.33815E-15 1.72164E-03 3.19273E-08-3.32179E-08 5.57837E-04
 -1        95-7.52541E-04 2.65125E-14 3.26046E-04 1.26181E-07-1.13761E-08 3.86386E-04
 -1        96-7.53806E-04 2.65125E-14 3.26197E-04 1.26181E-07-1.13761E-08 3.86559E-04
 -1        97-5.04815E-04 8.28333E-15-6.98421E-04 7.91470E-08-8.40058E-09 2.63754E-04
 -1        98-5.05978E-04 8.28333E-15-6.98246E-04 7.91469E-08-8.40063E-09 2.63555E-04
 -1        99-3.08346E-04-3.12023E-15-1.44464E-03 1.67734E-08 1.74000E-08 1.47362E-04
 -1       100-3.09462E-04-3.12023E-15-1.44449E-03 1.67734E-08 1.74000E-08 1.47357E-04
 -1       101-1.96131E-04 1.03872E-14-1.79304E-03 7.98801E-08 1.71173E-08-1.64401E-05
 -1       102-1.97075E-04 1.03872E-14-1.79326E-03 7.98800E-08 1.71173E-08-1.63338E-05
 -1       103-1.88352E-04 8.33819E-15-1.68530E-03 6.97051E-08-1.91633E-08-1.45372E-04
 -1       104-1.89210E-04 8.33819E-15-1.68557E-03 6.97051E-08-1.91633E-08-1.45411E-04
 -1       105-2.27347E-04 2.96404E-15-1.34805E-03 4.22254E-08-2.91363E-08-1.61748E-04
 -1       106-2.28218E-04 2.96404E-15-1.34814E-03 4.22254E-08-2.91363E-08-1.61644E-04
 -1       107-2.71355E-04 1.63702E-14-9.64912E-04 9.00532E-08-3.54923E-08-1.65049E-04
 -1       108-2.72222E-04 1.63702E-14-9.64938E-04 9.00531E-08-3.54923E-08-1.64934E-04
 -1       109-3.52723E-04 4.44860E-15-4.67009E-04 5.48837E-08-3.38421E-08-2.03246E-04
 -1       110-3.53716E-04 4.44860E-15-4.66689E-04 5.48836E-08-3.38421E-08-2.03358E-04
 -1       111-4.58179E-04-2.64903E-15 9.66604E-05-8.51853E-09 1.76518E-08-1.72905E-04
 -1       112-4.59028E-04-2.64903E-15 9.71187E-05-8.51853E-09 1.76518E-08-1.72926E-04
 -1       113-5.21286E-04 6.83608E-15 4.50862E-04 5.25655E-08 4.25029E-08-5.96606E-05
 -1       114-5.21731E-04 6.83608E-15 4.50852E-04 5.25654E-08 4.25029E-08-5.98770E-05
 -1       115-5.04448E-04-2.06987E-15 4.44436E-04-1.36445E-08 1.60307E-08 6.57316E-05
 -1       116-5.04876E-04-2.06987E-15 4.43732E-04-1.36445E-08 1.60307E-08 6.53706E-05
 -1       117-4.04758E-04 1.69282E-14 2.66986E-04-7.77787E-08-7.47141E-08 1.22186E-04
 -1       118-4.04807E-04 1.69282E-14 2.66247E-04-7.77788E-08-7.47140E-08 1.22798E-04
 -1       119-3.63885E-04 2.08300E-14 1.88502E-04-3.20781E-08-1.07016E-07 4.79211E-06
 -1       120-3.63659E-04 2.08300E-14 1.88586E-04-3.20782E-08-1.07016E-07 5.21735E-06
 -1       121-2.10768E-04 1.67254E-14 1.65517E-04-1.04321E-07-6.05921E-08-4.48535E-05
 -1       122-2.10541E-04 1.67254E-14 1.66360E-04-1.04321E-07-6.05923E-08-4.41141E-05
 -1       123-7.00419E-04-5.03458E-15 2.63685E-04 1.45394E-07 3.34764E-08-5.12109E-04
 -1       124-7.02513E-04-5.03458E-15 2.64357E-04 1.45395E-07 3.34763E-08-5.13011E-04
 -1       125 1.37936E-03 1.10582E-13 3.91158E-04-3.45474E-07 5.11444E-08-1.24532E-03
 -1       126 1.38508E-03 1.10582E-13 3.91372E-04-3.45475E-07 5.11459E-08-1.24849E-03
 -3
    1PSTEP                        12           3           2          
  100CL  103 1.30000E-01         126                     1    3           1
 -4  ERROR       1    1
 -5  STR(%)      1    1    0    0
 -1         1 7.74909E+01
 -1         2 7.74909E+01
 -1         3 7.74909E+01
 -1         4 7.74909E+01
 -1         5 7.74909E+01
 -1         6 7.74909E+01
 -1         7 7.74909E+01
 -1         8 7.74909E+01
 -1         9 7.85323E+01
 -1        10 7.85323E+01
 -1        11 7.85323E+01
 -1        12 7.85323E+01
 -1        13 7.85323E+01
 -1        14 7.85323E+01
 -1        15 7.85323E+01
 -1        16 7.85323E+01
 -1        17 3.03145E+01
 -1        18 2.48165E+01
 -1        19 3.03145E+01
 -1        20 2.48165E+01
 -1        21 8.88723E+01
 -1        22 2.75043E+01
 -1        23 8.88723E+01
 -1        24 2.75043E+01
 -1        25 8.88723E+01
 -1        26 3.55937E+01
 -1        27 8.88723E+01
 -1        28 3.55937E+01
 -1        29 7.33101E+01
 -1        30 3.95364E+01
 -1        31 7.33101E+01
 -1        32 3.95364E+01
 -1        33 7.52068E+01
 -1        34 4.04897E+01
 -1        35 7.52068E+01
 -1        36 4.04897E+01
 -1        37 7.52068E+01
 -1        38 4.04897E+01
 -1        39 7.52068E+01
 -1        40 4.04897E+01
 -1        41 7.49296E+01
 -1        42 4.01713E+01
 -1        43 7.49296E+01
 -1        44 4.01713E+01
 -1        45 7.05435E+01
 -1        46 3.87079E+01
 -1        47 7.05435E+01
 -1        48 3.87079E+01
 -1        49 6.23460E+01
 -1        50 3.55249E+01
 -1        51 6.23460E+01
 -1        52 3.55249E+01
 -1        53 4.13676E+01
 -1        54 2.60230E+01
 -1        55 4.13676E+01
 -1        56 2.60230E+01
 -1        57 3.59484E+01
 -1        58 1.25581E+01
 -1        59 3.59484E+01
 -1        60 1.25581E+01
 -1        61 3.93049E+01
 -1        62 1.38795E+01
 -1        63 3.93049E+01
 -1        64 1.38795E+01
 -1        65 5.40741E+01
 -1        66 2.18279E+01
 -1        67 5.40741E+01
 -1        68 2.18279E+01
 -1        69 5.40741E+01
 -1        70 2.30157E+01
 -1        71 5.40741E+01
 -1        72 2.30157E+01
 -1        73 7.43353E+01
 -1        74 2.30157E+01
 -1        75 7.43353E+01
 -1        76 2.30157E+01
 -1        77 7.43353E+01
 -1        78 6.91399E+01
 -1        79 7.43353E+01
 -1        80 6.91399E+01
 -1        81 6.91399E+01
 -1        82 6.91399E+01
 -1        83 6.91399E+01
 -1        84 6.91399E+01
 -1        85 5.48696E+01
 -1        86 5.48696E+01
 -1        87 5.48696E+01
 -1        88 5.48696E+01
 -1        89 4.06133E+01
 -1        90 4.06133E+01
 -1        91 3.09398E+01
 -1        92 3.09398E+01
 -1        93 3.03145E+01
 -1        94 3.03145E+01
 -1        95 8.88723E+01
 -1        96 8.88723E+01
 -1        97 8.88723E+01
 -1        98 8.88723E+01
 -1        99 7.33101E+01
 -1       100 7.33101E+01
 -1       101 7.52068E+01
 -1       102 7.52068E+01
 -1       103 7.52068E+01
 -1       104 7.52068E+01
 -1       105 7.49296E+01
 -1       106 7.49296E+01
 -1       107 7.05435E+01
 -1       108 7.05435E+01
 -1       109 6.23460E+01
 -1       110 6.23460E+01
 -1       111 4.13676E+01
 -1       112 4.13676E+01
 -1       113 3.59484E+01
 -1       114 3.59484E+01
 -1       115 3.93049E+01
 -1       116 3.93049E+01
 -1       117 5.40741E+01
 -1       118 5.40741E+01
 -1       119 5.40741E+01
 -1       120 5.40741E+01
 -1       121 7.43353E+01
 -1       122 7.43353E+01
 -1       123 7.43353E+01
 -1       124 7.43353E+01
 -1       125 5.81287E+01
 -1       126 5.81287E+01
 -3
    1PSTEP                        13           4           2          
  100CL  104 1.40000E-01         126                     1    4           1
 -4  DISP        4    1
 -5  D1          1    2    1    0
 -5  D2          1    2    2    0
 -5  D3          1    2    3    0
 -5  ALL         1    2    0    0    1ALL
 -1         1 0.00000E+00 0.00000E+00 0.00000E+00
 -1         2 0.00000E+00 0.00000E+00 0.00000E+00
 -1         3 4.25443E-04 0.00000E+00 6.31577E-05
 -1         4 5.12815E-04 0.00000E+00-4.13364E-04
 -1         5 0.00000E+00 0.00000E+00 0.00000E+00
 -1         6 0.00000E+00 0.00000E+00 0.00000E+00
 -1         7 4.25433E-04 0.00000E+00 6.31522E-05
 -1         8 5.12873E-04 0.00000E+00-4.13378E-04
 -1         9 1.27888E-03 0.00000E+00 1.38346E-04
 -1        10 1.29110E-03 0.00000E+00-6.74959E-04
 -1        11 1.27887E-03 0.00000E+00 1.38322E-04
 -1        12 1.29115E-03 0.00000E+00-6.74986E-04
 -1        13 2.33012E-03 0.00000E+00 2.12651E-04
 -1        14 2.31915E-03 0.00000E+00-7.88997E-04
 -1        15 2.33009E-03 0.00000E+00 2.12635E-04
 -1        16 2.31918E-03 0.00000E+00-7.89024E-04
 -1        17 3.49646E-03 0.00000E+00 2.87856E-04
 -1        18 3.46032E-03 0.00000E+00-7.94798E-04
 -1        19 3.49649E-03 0.00000E+00 2.87850E-04
 -1        20 3.46041E-03 0.00000E+00-7.94817E-04
 -1        21 4.67899E-03 0.00000E+00 3.63843E-04
 -1        22 4.62480E-03 0.00000E+00-7.06723E-04
 -1        23 4.67898E-03 0.00000E+00 3.63844E-04
 -1        24 4.62484E-03 0.00000E+00-7.06714E-04
 -1        25 5.79042E-03 0.00000E+00 4.39926E-04
 -1        26 5.72469E-03 0.00000E+00-5.40511E-04
 -1        27 5.79042E-03 0.00000E+00 4.39937E-04
 -1        28 5.72474E-03 0.00000E+00-5.40492E-04
 -1        29 6.74862E-03 0.00000E+00 5.14311E-04
 -1        30 6.67993E-03 0.00000E+00-3.20725E-04
 -1        31 6.74861E-03 0.00000E+00 5.14330E-04
 -1        32 6.67999E-03 0.00000E+00-3.20698E-04
 -1        33 7.51346E-03 0.00000E+00 5.84738E-04
 -1        34 7.44848E-03 0.00000E+00-7.92099E-05
 -1        35 7.51342E-03 0.00000E+00 5.84752E-04
 -1        36 7.44851E-03 0.00000E+00-7.91945E-05
 -1        37 8.08468E-03 0.00000E+00 6.50374E-04
 -1        38 8.02631E-03 0.00000E+00 1.59825E-04
 -1        39 8.08468E-03 0.00000E+00 6.50377E-04
 -1        40 8.02637E-03 0.00000E+00 1.59821E-04
 -1        41 8.47344E-03 0.00000E+00 7.11758E-04
 -1        42 8.42295E-03 0.00000E+00 3.82050E-04
 -1        43 8.47346E-03 0.00000E+00 7.11753E-04
 -1        44 8.42302E-03 0.00000E+00 3.82053E-04
 -1        45 8.70127E-03 0.00000E+00 7.69473E-04
 -1        46 8.65961E-03 0.00000E+00 5.77054E-04
 -1        47 8.70125E-03 0.00000E+00 7.69463E-04
 -1        48 8.65963E-03 0.00000E+00 5.77057E-04
 -1        49 8.80234E-03 0.00000E+00 8.23980E-04
 -1        50 8.76942E-03 0.00000E+00 7.39548E-04
 -1        51 8.80230E-03 0.00000E+00 8.23963E-04
 -1        52 8.76943E-03 0.00000E+00 7.39530E-04
 -1        53 8.80972E-03 0.00000E+00 8.76504E-04
 -1        54 8.78490E-03 0.00000E+00 8.69052E-04
 -1        55 8.80973E-03 0.00000E+00 8.76484E-04
 -1        56 8.78493E-03 0.00000E+00 8.69048E-04
 -1        57 8.75548E-03 0.00000E+00 9.28627E-04
 -1        58 8.73845E-03 0.00000E+00 9.63812E-04
 -1        59 8.75546E-03 0.00000E+00 9.28627E-04
 -1        60 8.73841E-03 0.00000E+00 9.63850E-04
 -1        61 8.68929E-03 0.00000E+00 9.80180E-04
 -1        62 8.67922E-03 0.00000E+00 1.02726E-03
 -1        63 8.68930E-03 0.00000E+00 9.80188E-04
 -1        64 8.67923E-03 0.00000E+00 1.02731E-03
 -1        65 8.64102E-03 0.00000E+00 1.03114E-03
 -1        66 8.63294E-03 0.00000E+00 1.07641E-03
 -1        67 8.64102E-03 0.00000E+00 1.03112E-03
 -1        68 8.63298E-03 0.00000E+00 1.07639E-03
 -1        69 8.60558E-03 0.00000E+00 1.08208E-03
 -1        70 8.59522E-03 0.00000E+00 1.13258E-03
 -1        71 8.60550E-03 0.00000E+00 1.08211E-03
 -1        72 8.59503E-03 0.00000E+00 1.13251E-03
 -1        73 8.56529E-03 0.00000E+00 1.12667E-03
 -1        74 8.55110E-03 0.00000E+00 1.20720E-03
 -1        75 8.56534E-03 0.00000E+00 1.12672E-03
 -1        76 8.55108E-03 0.00000E+00 1.20722E-03
 -1        77 8.46504E-03 0.00000E+00 1.16762E-03
 -1        78 8.47029E-03 0.00000E+00 1.27543E-03
 -1        79 8.46495E-03 0.00000E+00 1.16760E-03
 -1        80 8.47013E-03 0.00000E+00 1.27538E-03
 -1        81 8.34527E-03 0.00000E+00 1.18537E-03
 -1        82 8.30094E-03 0.00000E+00 1.35416E-03
 -1        83 8.34541E-03 0.00000E+00 1.18537E-03
 -1        84 8.30091E-03 0.00000E+00 1.35422E-03
 -1        85 0.00000E+00 0.00000E+00 0.00000E+00
 -1        86 5.82394E-04 0.00000E+00 5.48344E-04
 -1        87 0.00000E+00 0.00000E+00 0.00000E+00
 -1        88 5.82359E-04 0.00000E+00 5.48313E-04
 -1        89 1.37211E-03 0.00000E+00 9.51671E-04
 -1        90 1.37207E-03 0.00000E+00 9.51644E-04
 -1        91 2.40954E-03 0.00000E+00 1.21386E-03
 -1        92 2.40948E-03 0.00000E+00 1.21386E-03
 -1        93 3.55545E-03 0.00000E+00 1.37043E-03
 -1        94 3.55544E-03 0.00000E+00 1.37044E-03
 -1        95 4.71923E-03 0.00000E+00 1.43419E-03
 -1        96 4.71917E-03 0.00000E+00 1.43420E-03
 -1        97 5.81263E-03 0.00000E+00 1.41916E-03
 -1        98 5.81260E-03 0.00000E+00 1.41917E-03
 -1        99 6.75652E-03 0.00000E+00 1.34701E-03
 -1       100 6.75649E-03 0.00000E+00 1.34702E-03
 -1       101 7.51257E-03 0.00000E+00 1.24602E-03
 -1       102 7.51251E-03 0.00000E+00 1.24604E-03
 -1       103 8.07997E-03 0.00000E+00 1.13855E-03
 -1       104 8.07994E-03 0.00000E+00 1.13858E-03
 -1       105 8.46894E-03 0.00000E+00 1.03927E-03
 -1       106 8.46894E-03 0.00000E+00 1.03927E-03
 -1       107 8.69989E-03 0.00000E+00 9.59654E-04
 -1       108 8.69986E-03 0.00000E+00 9.59642E-04
 -1       109 8.80548E-03 0.00000E+00 9.06443E-04
 -1       110 8.80545E-03 0.00000E+00 9.06444E-04
 -1       111 8.81894E-03 0.00000E+00 8.82401E-04
 -1       112 8.81896E-03 0.00000E+00 8.82400E-04
 -1       113 8.77174E-03 0.00000E+00 8.91187E-04
 -1       114 8.77176E-03 0.00000E+00 8.91174E-04
 -1       115 8.70981E-03 0.00000E+00 9.30222E-04
 -1       116 8.70987E-03 0.00000E+00 9.30190E-04
 -1       117 8.66188E-03 0.00000E+00 9.84644E-04
 -1       118 8.66197E-03 0.00000E+00 9.84654E-04
 -1       119 8.62320E-03 0.00000E+00 1.03318E-03
 -1       120 8.62326E-03 0.00000E+00 1.03328E-03
 -1       121 8.57140E-03 0.00000E+00 1.05920E-03
 -1       122 8.57155E-03 0.00000E+00 1.05918E-03
 -1       123 8.48737E-03 0.00000E+00 1.06811E-03
 -1       124 8.48741E-03 0.00000E+00 1.06806E-03
 -1       125 8.28823E-03 0.00000E+00 1.09522E-03
 -1       126 8.28834E-03 0.00000E+00 1.09513E-03
 -3
    1PSTEP                        14           4           2          
  100CL  104 1.40000E-01         126                     1    4           1
 -4  STRESS      6    1
 -5  SXX         1    4    1    1
 -5  SYY         1    4    2    2
 -5  SZZ         1    4    3    3
 -5  SXY         1    4    1    2
 -5  SYZ         1    4    2    3
 -5  SZX         1    4    3    1
 -1         1-1.87431E+03-1.90350E+03-4.38694E+03-3.26104E-05 4.83455E-05 1.53561E+03
 -1         2 3.18248E+02 2.99641E+02 6.81762E+02-6.12645E-06-8.55191E-06 1.31367E+03
 -1         3 1.11787E+01 1.89773E+02 6.21659E+02-5.29693E-03-2.85956E-03 4.92441E+02
 -1         4-5.57931E+02-1.12397E+03-3.15628E+03 2.94542E-02-6.62221E-03 5.00730E+02
 -1         5-1.87436E+03-1.90356E+03-4.38708E+03-3.26273E-05 4.83472E-05 1.53578E+03
 -1         6 3.18221E+02 2.99615E+02 6.81702E+02-6.12432E-06-8.55155E-06 1.31364E+03
 -1         7 1.16190E+01 1.89928E+02 6.21739E+02-5.29694E-03-2.85956E-03 4.92444E+02
 -1         8-5.57254E+02-1.12371E+03-3.15611E+03 2.94543E-02-6.62220E-03 5.00783E+02
 -1         9 4.01158E+01 2.30835E+02 7.29531E+02-7.58317E-03-1.24571E-02 4.35139E+02
 -1        10-6.15930E+02-7.42592E+02-1.84830E+03 2.63995E-02-1.34227E-02 2.64263E+02
 -1        11 4.06107E+01 2.31032E+02 7.29695E+02-7.58318E-03-1.24571E-02 4.35101E+02
 -1        12-6.15248E+02-7.42316E+02-1.84807E+03 2.63996E-02-1.34227E-02 2.64206E+02
 -1        13 3.88162E+01 2.39655E+02 7.62983E+02-1.79242E-02-8.45522E-03 3.39069E+02
 -1        14-2.21208E+02-2.26641E+02-5.32677E+02 1.35331E-02-1.36515E-02 2.51769E+02
 -1        15 3.93437E+01 2.39906E+02 7.63295E+02-1.79243E-02-8.45524E-03 3.39093E+02
 -1        16-2.20523E+02-2.26337E+02-5.32348E+02 1.35331E-02-1.36516E-02 2.51794E+02
 -1        17 4.02518E+01 2.47222E+02 7.87323E+02 1.22344E-02-2.72229E-03 2.91924E+02
 -1        18-1.74403E+00 1.38444E+02 4.65462E+02 4.59650E-02-9.65738E-03 2.21613E+02
 -1        19 4.08594E+01 2.47506E+02 7.87662E+02 1.22344E-02-2.72229E-03 2.91904E+02
 -1        20-9.51054E-01 1.38832E+02 4.65963E+02 4.59651E-02-9.65740E-03 2.21599E+02
 -1        21 3.79840E+01 2.46772E+02 7.87824E+02-7.44424E-03 4.02087E-04 2.44560E+02
 -1        22 1.94799E+02 4.48729E+02 1.30876E+03 2.35167E-02 4.63177E-03 2.02776E+02
 -1        23 3.85484E+01 2.47035E+02 7.88136E+02-7.44426E-03 4.02090E-04 2.44522E+02
 -1        24 1.95528E+02 4.49090E+02 1.30923E+03 2.35167E-02 4.63177E-03 2.02744E+02
 -1        25 3.49028E+01 2.38369E+02 7.62151E+02-2.67452E-03 5.46490E-03 1.77046E+02
 -1        26 3.42249E+02 6.80600E+02 1.94121E+03 2.77334E-02 9.65561E-03 1.62023E+02
 -1        27 3.54188E+01 2.38614E+02 7.62451E+02-2.67453E-03 5.46491E-03 1.77083E+02
 -1        28 3.42926E+02 6.80914E+02 1.94158E+03 2.77335E-02 9.65563E-03 1.62069E+02
 -1        29 3.57823E+01 2.24252E+02 7.13259E+02-1.44894E-03 9.64434E-03 9.11069E+01
 -1        30 4.38659E+02 8.14189E+02 2.29481E+03 3.11155E-02 1.40140E-02 9.90685E+01
 -1        31 3.63006E+01 2.24479E+02 7.13498E+02-1.44895E-03 9.64434E-03 9.10858E+01
 -1        32 4.39329E+02 8.14471E+02 2.29508E+03 3.11156E-02 1.40140E-02 9.90580E+01
 -1        33 3.90793E+01 2.07395E+02 6.52973E+02-1.75607E-02 7.49870E-03 2.08177E+01
 -1        34 4.79797E+02 8.50460E+02 2.37540E+03 1.68387E-02 8.01088E-03 4.14020E+01
 -1        35 3.95618E+01 2.07582E+02 6.53113E+02-1.75608E-02 7.49870E-03 2.08139E+01
 -1        36 4.80443E+02 8.50696E+02 2.37554E+03 1.68388E-02 8.01088E-03 4.13985E+01
 -1        37 4.16957E+01 1.91375E+02 5.96639E+02 5.17324E-04 1.75722E-03-2.62119E+01
 -1        38 4.73676E+02 8.17177E+02 2.26866E+03 3.01381E-02-1.96963E-03-1.44597E+00
 -1        39 4.21101E+01 1.91527E+02 5.96731E+02 5.17326E-04 1.75722E-03-2.61620E+01
 -1        40 4.74270E+02 8.17416E+02 2.26886E+03 3.01382E-02-1.96963E-03-1.40959E+00
 -1        41 4.37104E+01 1.78394E+02 5.51341E+02 1.30042E-02-2.65154E-03-6.10266E+01
 -1        42 4.35813E+02 7.39491E+02 2.04416E+03 3.68306E-02 1.85845E-03-3.52111E+01
 -1        43 4.40411E+01 1.78517E+02 5.51422E+02 1.30042E-02-2.65154E-03-6.10574E+01
 -1        44 4.36326E+02 7.39719E+02 2.04441E+03 3.68307E-02 1.85844E-03-3.52431E+01
 -1        45 4.75345E+01 1.69165E+02 5.16849E+02-1.16030E-02-5.29023E-03-8.19467E+01
 -1        46 3.81834E+02 6.35794E+02 1.74855E+03 1.09180E-02 1.60173E-03-5.68624E+01
 -1        47 4.77663E+01 1.69248E+02 5.16895E+02-1.16030E-02-5.29022E-03-8.20148E+01
 -1        48 3.82252E+02 6.35943E+02 1.74863E+03 1.09180E-02 1.60172E-03-5.69279E+01
 -1        49 5.39868E+01 1.64366E+02 4.94576E+02-1.74152E-02-8.78621E-03-8.97906E+01
 -1        50 3.20364E+02 5.22362E+02 1.42836E+03 1.76279E-03-9.66390E-03-6.65608E+01
 -1        51 5.41472E+01 1.64422E+02 4.94602E+02-1.74152E-02-8.78621E-03-8.97748E+01
 -1        52 3.20751E+02 5.22519E+02 1.42850E+03 1.76279E-03-9.66390E-03-6.65659E+01
 -1        53 5.85625E+01 1.63040E+02 4.85774E+02 3.56952E-03-1.02533E-02-9.28552E+01
 -1        54 2.50360E+02 4.02916E+02 1.09730E+03 1.10253E-02-1.67689E-03-7.08960E+01
 -1        55 5.85997E+01 1.63079E+02 4.85866E+02 3.56952E-03-1.02533E-02-9.28440E+01
 -1        56 2.50649E+02 4.03115E+02 1.09768E+03 1.10253E-02-1.67689E-03-7.09175E+01
 -1        57 6.05652E+01 1.62682E+02 4.82647E+02-1.28145E-02 1.44813E-04-7.39091E+01
 -1        58 1.82047E+02 2.86625E+02 7.75748E+02-2.24280E-02 1.97084E-02-5.47865E+01
 -1        59 6.02777E+01 1.62596E+02 4.82647E+02-1.28145E-02 1.44804E-04-7.38178E+01
 -1        60 1.81965E+02 2.86658E+02 7.75941E+02-2.24280E-02 1.97084E-02-5.46814E+01
 -1        61 7.23786E+01 1.66244E+02 4.82734E+02 7.69925E-03 4.11673E-03-2.70816E+01
 -1        62 1.51732E+02 2.13531E+02 5.61262E+02 7.07939E-03 2.48368E-02-1.77183E+01
 -1        63 7.20576E+01 1.66073E+02 4.82484E+02 7.69924E-03 4.11674E-03-2.69112E+01
 -1        64 1.51583E+02 2.13389E+02 5.60938E+02 7.07942E-03 2.48368E-02-1.74707E+01
 -1        65 7.96757E+01 1.68559E+02 4.83148E+02 2.38012E-03-1.29174E-02 1.22456E+01
 -1        66 1.56298E+02 2.05879E+02 5.31038E+02 1.85289E-02-1.06384E-02 9.92210E+00
 -1        67 7.94242E+01 1.68474E+02 4.83117E+02 2.38011E-03-1.29174E-02 1.20557E+01
 -1        68 1.56368E+02 2.05755E+02 5.30554E+02 1.85288E-02-1.06384E-02 9.61890E+00
 -1        69 7.00920E+01 1.56052E+02 4.50898E+02-3.99790E-02 1.30608E-02 3.63254E+01
 -1        70 1.90437E+02 2.54104E+02 6.58221E+02-9.82666E-02-3.51363E-02 2.93203E+01
 -1        71 6.89156E+01 1.55651E+02 4.50738E+02-3.99788E-02 1.30609E-02 3.61253E+01
 -1        72 1.89309E+02 2.53674E+02 6.57917E+02-9.82661E-02-3.51361E-02 2.89559E+01
 -1        73 8.89835E+01 1.51036E+02 4.15184E+02 2.38440E-02 2.72573E-02 1.12637E+01
 -1        74 1.77489E+02 2.64566E+02 7.06302E+02-6.43062E-03 1.02522E-02 5.54144E+01
 -1        75 8.79862E+01 1.50550E+02 4.14558E+02 2.38439E-02 2.72573E-02 1.13057E+01
 -1        76 1.76903E+02 2.64342E+02 7.06143E+02-6.43063E-03 1.02522E-02 5.53538E+01
 -1        77 4.51673E+01 9.70942E+01 2.78606E+02-4.46760E-02-1.00189E-02-1.97158E+01
 -1        78 3.97838E+02 3.64389E+02 8.19239E+02-8.44733E-02-2.44241E-02-5.38278E+01
 -1        79 4.39562E+01 9.65005E+01 2.77836E+02-4.46758E-02-1.00190E-02-1.95645E+01
 -1        80 3.97098E+02 3.64128E+02 8.19106E+02-8.44729E-02-2.44241E-02-5.39360E+01
 -1        81 1.53281E+02 1.12613E+02 2.23020E+02 7.38276E-02-1.98448E-03 2.95202E+01
 -1        82-1.09141E+02 1.61641E+02 6.49615E+02-1.33194E-02 3.16773E-02-2.81685E+00
 -1        83 1.52606E+02 1.12364E+02 2.22869E+02 7.38273E-02-1.98410E-03 3.04624E+01
 -1        84-1.10467E+02 1.61361E+02 6.50012E+02-1.33192E-02 3.16773E-02-2.18968E+00
 -1        85 2.57019E+03 2.53249E+03 6.01970E+03-4.79917E-05-3.20483E-05 1.85598E+03
 -1        86 5.74657E+02 1.50642E+03 4.52023E+03-1.79185E-02-1.60611E-02 6.49733E+02
 -1        87 2.57004E+03 2.53235E+03 6.01936E+03-4.79868E-05-3.20463E-05 1.85587E+03
 -1        88 5.74852E+02 1.50646E+03 4.52019E+03-1.79185E-02-1.60611E-02 6.49739E+02
 -1        89 6.54871E+02 1.17459E+03 3.30116E+03-2.34497E-02-1.42023E-02 3.35039E+02
 -1        90 6.55259E+02 1.17479E+03 3.30145E+03-2.34497E-02-1.42024E-02 3.35006E+02
 -1        91 2.87462E+02 7.01275E+02 2.06808E+03-3.20036E-02-2.21436E-03 2.99094E+02
 -1        92 2.87854E+02 7.01497E+02 2.06843E+03-3.20036E-02-2.21437E-03 2.99103E+02
 -1        93 7.18283E+01 3.51934E+02 1.10783E+03-7.87221E-03 6.73814E-03 2.34993E+02
 -1        94 7.22675E+01 3.52132E+02 1.10805E+03-7.87223E-03 6.73815E-03 2.34949E+02
 -1        95-1.30156E+02 3.84907E+01 2.59831E+02-2.72658E-02 1.28018E-03 1.83850E+02
 -1        96-1.29760E+02 3.86514E+01 2.59968E+02-2.72659E-02 1.28019E-03 1.83813E+02
 -1        97-2.83548E+02-2.11436E+02-4.20677E+02-1.75215E-02 2.93441E-03 1.19941E+02
 -1        98-2.83216E+02-2.11283E+02-4.20501E+02-1.75215E-02 2.93441E-03 1.19983E+02
 -1        99-3.73896E+02-3.70541E+02-8.59629E+02-1.77873E-02 5.24707E-03 4.90148E+01
 -1       100-3.73522E+02-3.70361E+02-8.59406E+02-1.77873E-02 5.24708E-03 4.89944E+01
 -1       101-4.03336E+02-4.36484E+02-1.04914E+03-3.26735E-02 1.03647E-02-2.92023E+00
 -1       102-4.02990E+02-4.36318E+02-1.04894E+03-3.26736E-02 1.03647E-02-2.92555E+00
 -1       103-3.90014E+02-4.33763E+02-1.05329E+03-1.33988E-02 1.14856E-02-3.38766E+01
 -1       104-3.89765E+02-4.33684E+02-1.05327E+03-1.33988E-02 1.14856E-02-3.38317E+01
 -1       105-3.48548E+02-3.82677E+02-9.25058E+02 2.25714E-03-3.42815E-04-5.57150E+01
 -1       106-3.48402E+02-3.82660E+02-9.25147E+02 2.25714E-03-3.42815E-04-5.57313E+01
 -1       107-2.86596E+02-2.97182E+02-7.02960E+02-1.39905E-02-6.33745E-03-6.80443E+01
 -1       108-2.86544E+02-2.97158E+02-7.02932E+02-1.39905E-02-6.33744E-03-6.80915E+01
 -1       109-2.11167E+02-1.92286E+02-4.29488E+02-1.56864E-02 3.23012E-04-7.06658E+01
 -1       110-2.11178E+02-1.92276E+02-4.29445E+02-1.56864E-02 3.23009E-04-7.06441E+01
 -1       111-1.34251E+02-7.77085E+01-1.24758E+02 1.13319E-02-7.83828E-04-7.00537E+01
 -1       112-1.34445E+02-7.78096E+01-1.24900E+02 1.13319E-02-7.83825E-04-7.00298E+01
 -1       113-6.42365E+01 3.55417E+01 1.82970E+02 1.11382E-02-6.62065E-03-5.28336E+01
 -1       114-6.48110E+01 3.52545E+01 1.82587E+02 1.11382E-02-6.62064E-03-5.27305E+01
 -1       115-4.72387E+00 1.21265E+02 4.09736E+02 3.20914E-02-1.67588E-02-1.55216E+01
 -1       116-5.18427E+00 1.21097E+02 4.09638E+02 3.20914E-02-1.67587E-02-1.52907E+01
 -1       117 1.33453E+01 1.41530E+02 4.59362E+02 4.63631E-02 4.85549E-03 9.63599E+00
 -1       118 1.27355E+01 1.41448E+02 4.59698E+02 4.63629E-02 4.85545E-03 9.52600E+00
 -1       119-1.72252E+01 9.09816E+01 3.21026E+02 3.10593E-02 5.29266E-02 1.11312E+01
 -1       120-1.87759E+01 9.02824E+01 3.20247E+02 3.10590E-02 5.29265E-02 1.09894E+01
 -1       121 1.56059E+01 5.28699E+01 1.60718E+02 7.88757E-02-8.43317E-03-1.43096E+00
 -1       122 1.41015E+01 5.20252E+01 1.59405E+02 7.88752E-02-8.43307E-03-1.25565E+00
 -1       123-1.54230E+02-1.84103E+01 9.33756E+01 1.82843E-02-2.50396E-02-1.29808E+02
 -1       124-1.55719E+02-1.91434E+01 9.24197E+01 1.82842E-02-2.50395E-02-1.29782E+02
 -1       125 7.45028E+02 3.90068E+02 5.58382E+02 5.77568E-02-4.56101E-02-3.36716E+02
 -1       126 7.45181E+02 3.90030E+02 5.58097E+02 5.77567E-02-4.56099E-02-3.36217E+02
 -3
    1PSTEP                        15           4           2          
  100CL  104 1.40000E-01         126                     1    4           1
 -4  TOSTRAIN    6    1
 -5  EXX         1    4    1    1
 -5  EYY         1    4    2    2
 -5  EZZ         1    4    3    3
 -5  EXY         1    4    1    2
 -5  EYZ         1    4    2    3
 -5  EZX         1    4    3    1
 -1         1-7.85357E-06-2.49802E-15-8.18818E-03-6.36158E-11 2.37267E-13 5.12804E-03
 -1         2-8.23455E-06 3.25951E-16 1.29185E-03-1.68938E-11 4.36137E-13 4.25432E-03
 -1         3-6.52338E-04-1.94117E-15 1.46925E-03-1.71524E-08-9.45382E-09 1.57468E-03
 -1         4 1.78844E-03 1.36451E-14-6.64456E-03 9.60025E-08-2.08508E-08 1.73363E-03
 -1         5-7.85420E-06-2.49802E-15-8.18843E-03-6.36380E-11 2.37268E-13 5.12862E-03
 -1         6-8.23433E-06 3.25951E-16 1.29174E-03-1.68909E-11 4.36137E-13 4.25422E-03
 -1         7-6.51416E-04-1.94117E-15 1.46901E-03-1.71524E-08-9.45382E-09 1.57470E-03
 -1         8 1.78980E-03 1.36451E-14-6.64482E-03 9.60026E-08-2.08507E-08 1.73382E-03
 -1         9-6.79462E-04 1.61072E-15 1.67682E-03-2.39100E-08-4.07805E-08 1.37031E-03
 -1        10 3.74045E-04 1.42087E-14-3.58445E-03 8.66366E-08-4.24228E-08 9.31325E-04
 -1        11-6.78490E-04 1.61072E-15 1.67670E-03-2.39101E-08-4.07805E-08 1.37020E-03
 -1        12 3.75371E-04 1.42087E-14-3.58459E-03 8.66367E-08-4.24228E-08 9.31159E-04
 -1        13-7.03360E-04 4.20233E-15 1.74198E-03-5.76586E-08-2.85682E-08 1.04859E-03
 -1        14-1.94732E-05 2.09396E-15-9.61889E-04 4.49322E-08-4.35321E-08 8.39227E-04
 -1        15-7.02467E-04 4.20233E-15 1.74218E-03-5.76586E-08-2.85682E-08 1.04867E-03
 -1        16-1.82416E-05 2.09396E-15-9.61805E-04 4.49323E-08-4.35321E-08 8.39327E-04
 -1        17-7.16491E-04-1.95749E-15 1.78873E-03 3.99597E-08-7.97544E-09 8.90643E-04
 -1        18-4.88244E-04 3.94262E-14 1.08916E-03 1.50089E-07-2.81168E-08 6.84417E-04
 -1        19-7.15434E-04-1.95749E-15 1.78891E-03 3.99597E-08-7.97543E-09 8.90595E-04
 -1        20-4.86923E-04 3.94262E-14 1.08952E-03 1.50090E-07-2.81168E-08 6.84389E-04
 -1        21-7.14799E-04-1.98921E-15 1.78501E-03-2.42149E-08 7.89060E-10 7.38061E-04
 -1        22-8.54178E-04 7.41523E-15 2.80274E-03 7.60706E-08 1.66290E-08 5.76651E-04
 -1        23-7.13810E-04-1.98921E-15 1.78516E-03-2.42150E-08 7.89068E-10 7.37957E-04
 -1        24-8.52975E-04 7.41523E-15 2.80311E-03 7.60707E-08 1.66290E-08 5.76564E-04
 -1        25-6.87397E-04-1.39101E-15 1.72059E-03-9.04415E-09 1.75582E-08 5.25909E-04
 -1        26-1.12196E-03 1.47466E-14 4.07918E-03 8.94571E-08 3.29754E-08 4.19935E-04
 -1        27-6.86517E-04-1.39101E-15 1.72077E-03-9.04416E-09 1.75583E-08 5.26039E-04
 -1        28-1.12078E-03 1.47466E-14 4.07937E-03 8.94572E-08 3.29754E-08 4.20099E-04
 -1        29-6.27184E-04-8.94740E-16 1.59857E-03-5.22739E-09 3.11943E-08 2.57835E-04
 -1        30-1.23408E-03 2.02572E-14 4.77301E-03 1.00301E-07 4.69267E-08 2.18222E-04
 -1        31-6.26233E-04-8.94740E-16 1.59860E-03-5.22739E-09 3.11943E-08 2.57782E-04
 -1        32-1.23282E-03 2.02572E-14 4.77298E-03 1.00301E-07 4.69267E-08 2.18210E-04
 -1        33-5.53660E-04 4.12111E-15 1.45163E-03-5.73747E-08 2.35666E-08 4.08550E-05
 -1        34-1.21147E-03 2.26373E-15 4.90837E-03 5.43690E-08 2.65841E-08 5.17587E-05
 -1        35-5.52694E-04 4.12111E-15 1.45148E-03-5.73748E-08 2.35666E-08 4.08573E-05
 -1        36-1.21013E-03 2.26373E-15 4.90806E-03 5.43690E-08 2.65841E-08 5.17689E-05
 -1        37-4.89251E-04-2.91486E-15 1.31777E-03 1.64714E-09 5.72738E-09-1.02546E-04
 -1        38-1.11951E-03 1.56076E-14 4.67130E-03 9.79675E-08-5.39538E-09-6.14648E-05
 -1        39-4.88399E-04-2.91486E-15 1.31758E-03 1.64714E-09 5.72739E-09-1.02374E-04
 -1        40-1.11836E-03 1.56076E-14 4.67119E-03 9.79676E-08-5.39534E-09-6.13363E-05
 -1        41-4.38766E-04 1.12447E-15 1.21121E-03 4.23320E-08-8.33066E-09-2.08492E-04
 -1        42-9.88198E-04 2.54319E-14 4.20150E-03 1.19601E-07 6.78837E-09-1.47513E-04
 -1        43-4.38092E-04 1.12447E-15 1.21108E-03 4.23321E-08-8.33067E-09-2.08587E-04
 -1        44-9.87271E-04 2.54319E-14 4.20157E-03 1.19601E-07 6.78833E-09-1.47609E-04
 -1        45-3.95759E-04 1.32849E-15 1.12851E-03-3.76458E-08-1.73252E-08-2.71286E-04
 -1        46-8.25847E-04-9.09086E-16 3.58762E-03 3.54585E-08 5.30498E-09-2.00133E-04
 -1        47-3.95273E-04 1.32849E-15 1.12839E-03-3.76458E-08-1.73252E-08-2.71504E-04
 -1        48-8.24970E-04-9.09086E-16 3.58740E-03 3.54585E-08 5.30496E-09-2.00338E-04
 -1        49-3.59314E-04 6.44824E-15 1.07157E-03-5.65637E-08-2.86109E-08-2.93278E-04
 -1        50-6.56935E-04 1.69121E-16 2.92514E-03 5.77512E-09-3.12743E-08-2.20730E-04
 -1        51-3.58974E-04 6.44824E-15 1.07148E-03-5.65637E-08-2.86109E-08-2.93227E-04
 -1        52-6.56187E-04 1.69121E-16 2.92508E-03 5.77512E-09-3.12743E-08-2.20745E-04
 -1        53-3.40375E-04 7.21003E-16 1.04714E-03 1.15860E-08-3.32707E-08-3.01012E-04
 -1        54-4.96375E-04-6.69906E-16 2.24525E-03 3.58186E-08-5.42267E-09-2.29455E-04
 -1        55-3.40381E-04 7.21003E-16 1.04732E-03 1.15860E-08-3.32707E-08-3.00976E-04
 -1        56-4.96085E-04-6.69906E-16 2.24582E-03 3.58186E-08-5.42269E-09-2.29523E-04
 -1        57-3.32563E-04 2.97220E-16 1.03795E-03-4.16475E-08 5.03634E-10-2.38458E-04
 -1        58-3.40274E-04 1.28951E-14 1.58389E-03-7.28031E-08 6.39663E-08-1.75834E-04
 -1        59-3.33217E-04 2.97220E-16 1.03823E-03-4.16475E-08 5.03626E-10-2.38161E-04
 -1        60-3.40648E-04 1.28951E-14 1.58440E-03-7.28030E-08 6.39663E-08-1.75491E-04
 -1        61-3.05392E-04-1.87557E-15 1.02630E-03 2.50366E-08 1.33396E-08-8.64406E-05
 -1        62-2.00965E-04 8.71051E-15 1.12714E-03 2.30898E-08 8.05733E-08-5.60845E-05
 -1        63-3.05879E-04-1.87557E-15 1.02605E-03 2.50366E-08 1.33396E-08-8.58873E-05
 -1        64-2.00989E-04 8.71051E-15 1.12655E-03 2.30899E-08 8.05733E-08-5.52823E-05
 -1        65-2.88920E-04-3.97753E-15 1.01989E-03 7.69946E-09-4.19314E-08 4.08760E-05
 -1        66-1.61069E-04-1.62445E-14 1.05401E-03 6.01751E-08-3.45810E-08 3.32227E-05
 -1        67-2.89463E-04-3.97753E-15 1.02007E-03 7.69945E-09-4.19314E-08 4.02606E-05
 -1        68-1.60439E-04-1.62445E-14 1.05284E-03 6.01750E-08-3.45810E-08 3.22394E-05
 -1        69-2.79258E-04 6.28001E-15 9.55927E-04-1.29896E-07 4.25193E-08 1.18938E-04
 -1        70-2.06733E-04 1.69113E-13 1.30907E-03-3.19354E-07-1.13662E-07 9.64204E-05
 -1        71-2.81781E-04 6.28001E-15 9.56709E-04-1.29895E-07 4.25193E-08 1.18291E-04
 -1        72-2.09006E-04 1.69113E-13 1.30947E-03-3.19353E-07-1.13662E-07 9.52399E-05
 -1        73-2.01912E-04 9.30764E-16 8.56776E-04 7.76013E-08 8.83678E-08 3.80614E-05
 -1        74-2.82632E-04-3.18684E-14 1.43033E-03-2.08731E-08 3.32801E-08 1.82038E-04
 -1        75-2.03576E-04 9.30764E-16 8.56328E-04 7.76011E-08 8.83677E-08 3.81984E-05
 -1        76-2.83814E-04-3.18684E-14 1.43054E-03-2.08731E-08 3.32801E-08 1.81842E-04
 -1        77-1.68743E-04 2.86364E-17 5.89542E-04-1.45252E-07-3.22327E-08-6.27280E-05
 -1        78 1.07281E-04 1.30949E-13 1.47400E-03-2.74537E-07-7.86161E-08-1.71200E-04
 -1        79-1.70746E-04 2.86364E-17 5.88970E-04-1.45251E-07-3.22328E-08-6.22329E-05
 -1        80 1.05730E-04 1.30949E-13 1.47442E-03-2.74536E-07-7.86161E-08-1.71545E-04
 -1        81 1.31028E-04 4.97618E-14 3.57804E-04 2.39857E-07-7.01938E-09 9.73403E-05
 -1        82-8.80746E-04-3.19796E-14 1.58127E-03-4.30666E-08 1.02964E-07-1.52095E-06
 -1        83 1.29650E-04 4.97618E-14 3.58106E-04 2.39857E-07-7.01836E-09 1.00404E-04
 -1        84-8.84139E-04-3.19796E-14 1.58344E-03-4.30663E-08 1.02964E-07 5.28458E-07
 -1        85-8.61552E-06-1.80131E-15 1.10859E-02-1.12184E-10 4.42106E-13 5.82382E-03
 -1        86-3.09312E-03 9.88760E-15 9.65289E-03-5.75207E-08-5.21205E-08 1.94090E-03
 -1        87-8.61446E-06-1.80131E-15 1.10853E-02-1.12175E-10 4.42106E-13 5.82347E-03
 -1        88-3.09264E-03 9.88760E-15 9.65261E-03-5.75208E-08-5.21205E-08 1.94093E-03
 -1        89-1.73297E-03 1.44407E-14 6.84567E-03-7.53217E-08-4.69452E-08 9.31253E-04
 -1        90-1.73235E-03 1.44407E-14 6.84593E-03-7.53217E-08-4.69452E-08 9.31149E-04
 -1        91-1.38725E-03 1.94399E-14 4.43496E-03-1.03823E-07-9.21468E-09 8.45281E-04
 -1        92-1.38669E-03 1.94399E-14 4.43537E-03-1.03823E-07-9.21472E-09 8.45312E-04
 -1        93-9.44738E-04-1.31757E-15 2.47271E-03-2.60913E-08 2.12641E-08 6.85228E-04
 -1        94-9.43946E-04-1.31757E-15 2.47278E-03-2.60913E-08 2.12641E-08 6.85098E-04
 -1        95-5.75419E-04 1.35302E-14 7.42580E-04-8.87248E-08 2.26258E-09 5.68068E-04
 -1        96-5.74645E-04 1.35302E-14 7.42502E-04-8.87249E-08 2.26259E-09 5.67966E-04
 -1        97-2.52836E-04 5.71192E-15-6.63193E-04-5.71568E-08 8.43915E-09 3.98122E-04
 -1        98-2.52259E-04 5.71192E-15-6.63112E-04-5.71568E-08 8.43914E-09 3.98269E-04
 -1        99-2.02859E-05 5.84352E-15-1.58441E-03-5.81246E-08 1.61245E-08 1.85808E-04
 -1       100-1.96511E-05 5.84352E-15-1.58427E-03-5.81246E-08 1.61245E-08 1.85749E-04
 -1       101 1.04146E-04 2.29685E-14-1.99397E-03-1.06702E-07 3.23702E-08 1.82567E-05
 -1       102 1.04737E-04 2.29685E-14-1.99385E-03-1.06702E-07 3.23702E-08 1.82454E-05
 -1       103 1.41013E-04 4.28329E-15-2.01898E-03-4.39238E-08 3.70169E-08-8.94366E-05
 -1       104 1.41560E-04 4.28329E-15-2.01918E-03-4.39238E-08 3.70168E-08-8.92826E-05
 -1       105 1.10666E-04-1.48194E-15-1.76764E-03 7.35678E-09-1.07248E-09-1.69379E-04
 -1       106 1.11086E-04-1.48194E-15-1.76798E-03 7.35678E-09-1.07248E-09-1.69427E-04
 -1       107 3.43304E-05 4.41986E-15-1.32141E-03-4.54251E-08-2.08215E-08-2.16532E-04
 -1       108 3.44236E-05 4.41986E-15-1.32140E-03-4.54251E-08-2.08215E-08-2.16686E-04
 -1       109-6.16932E-05 3.57832E-15-7.71350E-04-5.10080E-08 9.63330E-10-2.28778E-04
 -1       110-6.17600E-05 3.57832E-15-7.71241E-04-5.10080E-08 9.63303E-10-2.28708E-04
 -1       111-1.84374E-04 1.01709E-15-1.52403E-04 3.68377E-08-2.54181E-09-2.27604E-04
 -1       112-1.84677E-04 1.01709E-15-1.52537E-04 3.68377E-08-2.54179E-09-2.27527E-04
 -1       113-3.24852E-04 5.61029E-16 4.78912E-04 3.61799E-08-2.15276E-08-1.70868E-04
 -1       114-3.25786E-04 5.61029E-16 4.78600E-04 3.61799E-08-2.15276E-08-1.70533E-04
 -1       115-4.09819E-04 2.25332E-14 9.35595E-04 1.04251E-07-5.45023E-08-4.90121E-05
 -1       116-4.10770E-04 2.25332E-14 9.35818E-04 1.04251E-07-5.45022E-08-4.82615E-05
 -1       117-4.16772E-04 3.32887E-14 1.03045E-03 1.50709E-07 1.56194E-08 3.25789E-05
 -1       118-4.18488E-04 3.32887E-14 1.03180E-03 1.50709E-07 1.56193E-08 3.22241E-05
 -1       119-3.51784E-04 4.30057E-14 7.46227E-04 1.01111E-07 1.71747E-07 3.71486E-05
 -1       120-3.54556E-04 4.30057E-14 7.45968E-04 1.01110E-07 1.71747E-07 3.66900E-05
 -1       121-1.21193E-04 1.02136E-13 3.50319E-04 2.56314E-07-2.77331E-08-4.14176E-06
 -1       122-1.23338E-04 1.02136E-13 3.48801E-04 2.56314E-07-2.77331E-08-3.57100E-06
 -1       123-4.44768E-04-2.62566E-15 3.64775E-04 5.92567E-08-8.14836E-08-4.19791E-04
 -1       124-4.47222E-04-2.62566E-15 3.64052E-04 5.92565E-08-8.14836E-08-4.19704E-04
 -1       125 1.14280E-03 1.03134E-13 5.49923E-04 1.86835E-07-1.48384E-07-1.09163E-03
 -1       126 1.14344E-03 1.03134E-13 5.49121E-04 1.86835E-07-1.48384E-07-1.09002E-03
 -3
    1PSTEP                        16           4           2          
  100CL  104 1.40000E-01         126                     1    4           1
 -4  ERROR       1    1
 -5  STR(%)      1    1    0    0
 -1         1 7.41996E+01
 -1         2 7.41996E+01
 -1         3 7.87252E+01
 -1         4 7.87252E+01
 -1         5 7.41996E+01
 -1         6 7.41996E+01
 -1         7 7.87252E+01
 -1         8 7.87252E+01
 -1         9 8.98299E+01
 -1        10 8.98299E+01
 -1        11 8.98299E+01
 -1        12 8.98299E+01
 -1        13 8.98299E+01
 -1        14 8.98299E+01
 -1        15 8.98299E+01
 -1        16 8.98299E+01
 -1        17 4.97092E+01
 -1        18 4.97092E+01
 -1        19 4.97092E+01
 -1        20 4.97092E+01
 -1        21 6.47019E+01
 -1        22 2.28805E+01
 -1        23 6.47019E+01
 -1        24 2.28805E+01
 -1        25 1.00559E+02
 -1        26 3.35922E+01
 -1        27 1.00559E+02
 -1        28 3.35922E+01
 -1        29 1.00559E+02
 -1        30 3.73441E+01
 -1        31 1.00559E+02
 -1        32 3.73441E+01
 -1        33 9.52987E+01
 -1        34 3.83585E+01
 -1        35 9.52987E+01
 -1        36 3.83585E+01
 -1        37 9.53430E+01
 -1        38 3.87365E+01
 -1        39 9.53430E+01
 -1        40 3.87365E+01
 -1        41 9.72129E+01
 -1        42 3.87365E+01
 -1        43 9.72129E+01
 -1        44 3.87365E+01
 -1        45 1.03843E+02
 -1        46 3.75961E+01
 -1        47 1.03843E+02
 -1        48 3.75961E+01
 -1        49 1.03843E+02
 -1        50 3.45661E+01
 -1        51 1.03843E+02
 -1        52 3.45661E+01
 -1        53 9.03424E+01
 -1        54 2.90490E+01
 -1        55 9.03424E+01
 -1        56 2.90490E+01
 -1        57 5.11417E+01
 -1        58 1.79502E+01
 -1        59 5.11417E+01
 -1        60 1.79502E+01
 -1        61 9.66797E+00
 -1        62 4.31507E+00
 -1        63 9.66797E+00
 -1        64 4.31507E+00
 -1        65 2.07487E+00
 -1        66 2.07487E+00
 -1        67 2.07487E+00
 -1        68 2.07487E+00
 -1        69 2.47355E+01
 -1        70 1.48981E+01
 -1        71 2.47355E+01
 -1        72 1.48981E+01
 -1        73 5.61408E+01
 -1        74 1.97931E+01
 -1        75 5.61408E+01
 -1        76 1.97931E+01
 -1        77 5.61408E+01
 -1        78 5.41091E+01
 -1        79 5.61408E+01
 -1        80 5.41091E+01
 -1        81 5.41091E+01
 -1        82 5.41091E+01
 -1        83 5.41091E+01
 -1        84 5.41091E+01
 -1        85 5.63125E+01
 -1        86 5.63125E+01
 -1        87 5.63125E+01
 -1        88 5.63125E+01
 -1        89 4.47729E+01
 -1        90 4.47729E+01
 -1        91 3.73842E+01
 -1        92 3.73842E+01
 -1        93 1.94646E+01
 -1        94 1.94646E+01
 -1        95 6.47019E+01
 -1        96 6.47019E+01
 -1        97 1.00559E+02
 -1        98 1.00559E+02
 -1        99 1.00559E+02
 -1       100 1.00559E+02
 -1       101 9.52987E+01
 -1       102 9.52987E+01
 -1       103 9.53430E+01
 -1       104 9.53430E+01
 -1       105 9.72129E+01
 -1       106 9.72129E+01
 -1       107 1.03843E+02
 -1       108 1.03843E+02
 -1       109 1.03843E+02
 -1       110 1.03843E+02
 -1       111 9.03424E+01
 -1       112 9.03424E+01
 -1       113 5.11417E+01
 -1       114 5.11417E+01
 -1       115 9.66797E+00
 -1       116 9.66797E+00
 -1       117 1.72730E+00
 -1       118 1.72730E+00
 -1       119 2.47355E+01
 -1       120 2.47355E+01
 -1       121 5.61408E+01
 -1       122 5.61408E+01
 -1       123 5.61408E+01
 -1       124 5.61408E+01
 -1       125 4.95152E+01
 -1       126 4.95152E+01
 -3
    1PSTEP                        17           5           2          
  100CL  105 1.50000E-01         126                     1    5           1
 -4  DISP        4    1
 -5  D1          1    2    1    0
 -5  D2          1    2    2    0
 -5  D3          1    2    3    0
 -5  ALL         1    2    0    0    1ALL
 -1         1 0.00000E+00 0.00000E+00 0.00000E+00
 -1         2 0.00000E+00 0.00000E+00 0.00000E+00
 -1         3 4.19686E-04 0.00000E+00 5.18220E-05
 -1         4 5.21050E-04 0.00000E+00-4.60930E-04
 -1         5 0.00000E+00 0.00000E+00 0.00000E+00
 -1         6 0.00000E+00 0.00000E+00 0.00000E+00
 -1         7 4.19721E-04 0.00000E+00 5.18218E-05
 -1         8 5.20968E-04 0.00000E+00-4.60926E-04
 -1         9 1.33225E-03 0.00000E+00 1.12698E-04
 -1        10 1.35378E-03 0.00000E+00-7.80692E-04
 -1        11 1.33225E-03 0.00000E+00 1.12710E-04
 -1        12 1.35371E-03 0.00000E+00-7.80686E-04
 -1        13 2.48985E-03 0.00000E+00 1.71850E-04
 -1        14 2.48535E-03 0.00000E+00-9.49315E-04
 -1        15 2.48989E-03 0.00000E+00 1.71861E-04
 -1        16 2.48530E-03 0.00000E+00-9.49325E-04
 -1        17 3.80579E-03 0.00000E+00 2.34619E-04
 -1        18 3.76964E-03 0.00000E+00-9.98635E-04
 -1        19 3.80582E-03 0.00000E+00 2.34629E-04
 -1        20 3.76957E-03 0.00000E+00-9.98624E-04
 -1        21 5.16853E-03 0.00000E+00 3.01861E-04
 -1        22 5.10889E-03 0.00000E+00-9.35014E-04
 -1        23 5.16856E-03 0.00000E+00 3.01869E-04
 -1        24 5.10884E-03 0.00000E+00-9.35014E-04
 -1        25 6.45967E-03 0.00000E+00 3.73215E-04
 -1        26 6.38445E-03 0.00000E+00-7.73638E-04
 -1        27 6.45969E-03 0.00000E+00 3.73215E-04
 -1        28 6.38439E-03 0.00000E+00-7.73646E-04
 -1        29 7.58997E-03 0.00000E+00 4.48613E-04
 -1        30 7.50823E-03 0.00000E+00-5.44161E-04
 -1        31 7.59001E-03 0.00000E+00 4.48607E-04
 -1        32 7.50818E-03 0.00000E+00-5.44166E-04
 -1        33 8.51709E-03 0.00000E+00 5.27026E-04
 -1        34 8.43530E-03 0.00000E+00-2.78982E-04
 -1        35 8.51711E-03 0.00000E+00 5.27028E-04
 -1        36 8.43524E-03 0.00000E+00-2.78977E-04
 -1        37 9.23235E-03 0.00000E+00 6.06637E-04
 -1        38 9.15395E-03 0.00000E+00-3.84281E-07
 -1        39 9.23237E-03 0.00000E+00 6.06649E-04
 -1        40 9.15388E-03 0.00000E+00-3.72838E-07
 -1        41 9.72806E-03 0.00000E+00 6.85951E-04
 -1        42 9.65634E-03 0.00000E+00 2.74720E-04
 -1        43 9.72807E-03 0.00000E+00 6.85967E-04
 -1        44 9.65628E-03 0.00000E+00 2.74731E-04
 -1        45 1.00153E-02 0.00000E+00 7.63854E-04
 -1        46 9.95340E-03 0.00000E+00 5.25900E-04
 -1        47 1.00153E-02 0.00000E+00 7.63863E-04
 -1        48 9.95335E-03 0.00000E+00 5.25905E-04
 -1        49 1.01410E-02 0.00000E+00 8.39813E-04
 -1        50 1.00894E-02 0.00000E+00 7.39612E-04
 -1        51 1.01410E-02 0.00000E+00 8.39814E-04
 -1        52 1.00894E-02 0.00000E+00 7.39621E-04
 -1        53 1.01480E-02 0.00000E+00 9.13364E-04
 -1        54 1.01069E-02 0.00000E+00 9.13074E-04
 -1        55 1.01480E-02 0.00000E+00 9.13363E-04
 -1        56 1.01069E-02 0.00000E+00 9.13083E-04
 -1        57 1.00715E-02 0.00000E+00 9.83183E-04
 -1        58 1.00423E-02 0.00000E+00 1.04424E-03
 -1        59 1.00715E-02 0.00000E+00 9.83167E-04
 -1        60 1.00423E-02 0.00000E+00 1.04422E-03
 -1        61 9.95303E-03 0.00000E+00 1.04920E-03
 -1        62 9.93455E-03 0.00000E+00 1.13289E-03
 -1        63 9.95306E-03 0.00000E+00 1.04917E-03
 -1        64 9.93455E-03 0.00000E+00 1.13282E-03
 -1        65 9.84244E-03 0.00000E+00 1.11202E-03
 -1        66 9.83007E-03 0.00000E+00 1.18937E-03
 -1        67 9.84248E-03 0.00000E+00 1.11203E-03
 -1        68 9.82999E-03 0.00000E+00 1.18936E-03
 -1        69 9.77548E-03 0.00000E+00 1.16832E-03
 -1        70 9.76893E-03 0.00000E+00 1.23598E-03
 -1        71 9.77556E-03 0.00000E+00 1.16830E-03
 -1        72 9.76903E-03 0.00000E+00 1.23604E-03
 -1        73 9.72311E-03 0.00000E+00 1.21718E-03
 -1        74 9.71167E-03 0.00000E+00 1.29208E-03
 -1        75 9.72310E-03 0.00000E+00 1.21713E-03
 -1        76 9.71164E-03 0.00000E+00 1.29199E-03
 -1        77 9.64658E-03 0.00000E+00 1.26125E-03
 -1        78 9.66221E-03 0.00000E+00 1.34009E-03
 -1        79 9.64672E-03 0.00000E+00 1.26128E-03
 -1        80 9.66229E-03 0.00000E+00 1.34016E-03
 -1        81 9.57624E-03 0.00000E+00 1.28020E-03
 -1        82 9.51283E-03 0.00000E+00 1.40081E-03
 -1        83 9.57598E-03 0.00000E+00 1.28020E-03
 -1        84 9.51296E-03 0.00000E+00 1.40064E-03
 -1        85 0.00000E+00 0.00000E+00 0.00000E+00
 -1        86 5.88567E-04 0.00000E+00 5.71670E-04
 -1        87 0.00000E+00 0.00000E+00 0.00000E+00
 -1        88 5.88555E-04 0.00000E+00 5.71686E-04
 -1        89 1.43542E-03 0.00000E+00 1.00496E-03
 -1        90 1.43541E-03 0.00000E+00 1.00498E-03
 -1        91 2.58147E-03 0.00000E+00 1.29298E-03
 -1        92 2.58151E-03 0.00000E+00 1.29300E-03
 -1        93 3.87753E-03 0.00000E+00 1.46882E-03
 -1        94 3.87755E-03 0.00000E+00 1.46882E-03
 -1        95 5.21981E-03 0.00000E+00 1.53976E-03
 -1        96 5.21983E-03 0.00000E+00 1.53976E-03
 -1        97 6.49159E-03 0.00000E+00 1.52122E-03
 -1        98 6.49160E-03 0.00000E+00 1.52123E-03
 -1        99 7.60801E-03 0.00000E+00 1.44221E-03
 -1       100 7.60803E-03 0.00000E+00 1.44220E-03
 -1       101 8.52625E-03 0.00000E+00 1.33315E-03
 -1       102 8.52626E-03 0.00000E+00 1.33314E-03
 -1       103 9.23620E-03 0.00000E+00 1.21305E-03
 -1       104 9.23620E-03 0.00000E+00 1.21306E-03
 -1       105 9.73091E-03 0.00000E+00 1.09596E-03
 -1       106 9.73090E-03 0.00000E+00 1.09597E-03
 -1       107 1.00219E-02 0.00000E+00 1.00032E-03
 -1       108 1.00219E-02 0.00000E+00 1.00033E-03
 -1       109 1.01536E-02 0.00000E+00 9.38205E-04
 -1       110 1.01536E-02 0.00000E+00 9.38203E-04
 -1       111 1.01668E-02 0.00000E+00 9.10813E-04
 -1       112 1.01668E-02 0.00000E+00 9.10791E-04
 -1       113 1.00963E-02 0.00000E+00 9.18851E-04
 -1       114 1.00962E-02 0.00000E+00 9.18833E-04
 -1       115 9.98360E-03 0.00000E+00 9.62892E-04
 -1       116 9.98355E-03 0.00000E+00 9.62922E-04
 -1       117 9.87399E-03 0.00000E+00 1.03186E-03
 -1       118 9.87392E-03 0.00000E+00 1.03189E-03
 -1       119 9.80199E-03 0.00000E+00 1.10144E-03
 -1       120 9.80191E-03 0.00000E+00 1.10138E-03
 -1       121 9.73734E-03 0.00000E+00 1.15602E-03
 -1       122 9.73717E-03 0.00000E+00 1.15610E-03
 -1       123 9.67962E-03 0.00000E+00 1.19232E-03
 -1       124 9.67949E-03 0.00000E+00 1.19237E-03
 -1       125 9.51854E-03 0.00000E+00 1.22411E-03
 -1       126 9.51860E-03 0.00000E+00 1.22422E-03
 -3
    1PSTEP                        18           5           2          
  100CL  105 1.50000E-01         126                     1    5           1
 -4  STRESS      6    1
 -5  SXX         1    4    1    1
 -5  SYY         1    4    2    2
 -5  SZZ         1    4    3    3
 -5  SXY         1    4    1    2
 -5  SYZ         1    4    2    3
 -5  SZX         1    4    3    1
 -1         1-2.09494E+03-2.12456E+03-4.88783E+03 3.96270E-05-7.30393E-05 1.55567E+03
 -1         2 2.64536E+02 2.47162E+02 5.55808E+02 4.94899E-06 3.08751E-05 1.29480E+03
 -1         3-2.85910E+01 1.39114E+02 4.91682E+02 1.79411E-02-5.76801E-05 4.64733E+02
 -1         4-6.44118E+02-1.29944E+03-3.64428E+03-4.21891E-02 1.98085E-03 4.81910E+02
 -1         5-2.09493E+03-2.12454E+03-4.88779E+03 3.95855E-05-7.30380E-05 1.55543E+03
 -1         6 2.64541E+02 2.47163E+02 5.55808E+02 4.95430E-06 3.08754E-05 1.29491E+03
 -1         7-2.89482E+01 1.38982E+02 4.91587E+02 1.79410E-02-5.76861E-05 4.64711E+02
 -1         8-6.45383E+02-1.29997E+03-3.64480E+03-4.21889E-02 1.98087E-03 4.81809E+02
 -1         9-6.19453E+00 1.75461E+02 5.89545E+02-1.42195E-03 6.38507E-03 4.44426E+02
 -1        10-7.53028E+02-9.46674E+02-2.38405E+03-3.87965E-02 2.82479E-03 2.55703E+02
 -1        11-6.56241E+00 1.75318E+02 5.89437E+02-1.42195E-03 6.38507E-03 4.44420E+02
 -1        12-7.53843E+02-9.47043E+02-2.38445E+03-3.87963E-02 2.82477E-03 2.55745E+02
 -1        13-1.09074E+01 1.88454E+02 6.41256E+02 2.26052E-02 5.58104E-03 3.64415E+02
 -1        14-3.35576E+02-3.98412E+02-9.88638E+02-2.21665E-02-4.90348E-03 2.58712E+02
 -1        15-1.13226E+01 1.88274E+02 6.41069E+02 2.26052E-02 5.58104E-03 3.64412E+02
 -1        16-3.36504E+02-3.98803E+02-9.89010E+02-2.21664E-02-4.90347E-03 2.58670E+02
 -1        17-1.61383E+01 2.04239E+02 7.00218E+02 1.34118E-02 4.92587E-03 3.35139E+02
 -1        18-1.00347E+02 1.57018E+01 1.54519E+02-3.36316E-02 5.42813E-03 2.45158E+02
 -1        19-1.66080E+01 2.04035E+02 7.00006E+02 1.34118E-02 4.92586E-03 3.35128E+02
 -1        20-1.01314E+02 1.52989E+01 1.54143E+02-3.36315E-02 5.42813E-03 2.45152E+02
 -1        21-1.58997E+01 2.15998E+02 7.39225E+02 1.22849E-02 4.52083E-03 2.86068E+02
 -1        22 1.32436E+02 3.93452E+02 1.18629E+03-2.73741E-02-2.44373E-04 2.31307E+02
 -1        23-1.63033E+01 2.15812E+02 7.39010E+02 1.22849E-02 4.52083E-03 2.86048E+02
 -1        24 1.31565E+02 3.93055E+02 1.18583E+03-2.73740E-02-2.44369E-04 2.31292E+02
 -1        25-1.76894E+01 2.20270E+02 7.54604E+02 1.03743E-02-4.18449E-05 2.04420E+02
 -1        26 3.09331E+02 6.82171E+02 1.98036E+03-3.07454E-02-4.28898E-03 1.83140E+02
 -1        27-1.80677E+01 2.20089E+02 7.54380E+02 1.03743E-02-4.18458E-05 2.04410E+02
 -1        28 3.08463E+02 6.81794E+02 1.97997E+03-3.07453E-02-4.28898E-03 1.83122E+02
 -1        29-2.03731E+01 2.19661E+02 7.54388E+02 1.77536E-02-2.80522E-03 1.17447E+02
 -1        30 4.22104E+02 8.58613E+02 2.46268E+03-2.64672E-02-2.35019E-03 1.21879E+02
 -1        31-2.07709E+01 2.19492E+02 7.54226E+02 1.77536E-02-2.80522E-03 1.17455E+02
 -1        32 4.21212E+02 8.58249E+02 2.46235E+03-2.64671E-02-2.35019E-03 1.21888E+02
 -1        33-1.98989E+01 2.16540E+02 7.42801E+02 1.29848E-02 9.90542E-04 5.28634E+01
 -1        34 4.79275E+02 9.39036E+02 2.67696E+03-3.04839E-02 2.77415E-03 7.02384E+01
 -1        35-2.02591E+01 2.16407E+02 7.42723E+02 1.29848E-02 9.90541E-04 5.28524E+01
 -1        36 4.78403E+02 9.38684E+02 2.67666E+03-3.04838E-02 2.77415E-03 7.02333E+01
 -1        37-1.70598E+01 2.11512E+02 7.23002E+02 8.13359E-03 6.19434E-03 6.74978E-01
 -1        38 4.92835E+02 9.50542E+02 2.70211E+03-3.31056E-02 5.94198E-03 2.43238E+01
 -1        39-1.73727E+01 2.11395E+02 7.22928E+02 8.13358E-03 6.19434E-03 6.71705E-01
 -1        40 4.91989E+02 9.50188E+02 2.70177E+03-3.31055E-02 5.94198E-03 2.43306E+01
 -1        41-1.21089E+01 2.06171E+02 7.00334E+02 9.04868E-03 8.10611E-03-5.61832E+01
 -1        42 4.69190E+02 8.99064E+02 2.55142E+03-2.86576E-02 5.98881E-03-2.72006E+01
 -1        43-1.23643E+01 2.06058E+02 7.00214E+02 9.04866E-03 8.10611E-03-5.61869E+01
 -1        44 4.68391E+02 8.98715E+02 2.55105E+03-2.86575E-02 5.98880E-03-2.71914E+01
 -1        45-5.01402E+00 2.01968E+02 6.79327E+02 7.05225E-03 5.04184E-03-9.33691E+01
 -1        46 4.14988E+02 7.92049E+02 2.24366E+03-2.64020E-02 3.03499E-03-6.22375E+01
 -1        47-5.17007E+00 2.01882E+02 6.79196E+02 7.05224E-03 5.04183E-03-9.33478E+01
 -1        48 4.14284E+02 7.91745E+02 2.24335E+03-2.64019E-02 3.03499E-03-6.22087E+01
 -1        49 1.25078E+00 1.97799E+02 6.59429E+02 1.86123E-02 6.27188E-04-1.01126E+02
 -1        50 3.39978E+02 6.56303E+02 1.86066E+03-1.54594E-02 4.75252E-03-7.12153E+01
 -1        51 1.15541E+00 1.97744E+02 6.59341E+02 1.86122E-02 6.27193E-04-1.01082E+02
 -1        52 3.39273E+02 6.56005E+02 1.86037E+03-1.54593E-02 4.75251E-03-7.11610E+01
 -1        53 8.98403E+00 1.92818E+02 6.35313E+02 1.58279E-02-3.79265E-04-1.03761E+02
 -1        54 2.61279E+02 5.13541E+02 1.45877E+03-1.68618E-02 4.44135E-03-7.37678E+01
 -1        55 8.91584E+00 1.92767E+02 6.35209E+02 1.58279E-02-3.79259E-04-1.03713E+02
 -1        56 2.60513E+02 5.13167E+02 1.45828E+03-1.68617E-02 4.44134E-03-7.36837E+01
 -1        57 2.46308E+01 1.89734E+02 6.09446E+02 1.90990E-02-8.02091E-03-1.07767E+02
 -1        58 1.94529E+02 3.73240E+02 1.05412E+03 2.73036E-03-1.34340E-02-7.82688E+01
 -1        59 2.48380E+01 1.89785E+02 6.09408E+02 1.90990E-02-8.02091E-03-1.07769E+02
 -1        60 1.94016E+02 3.72923E+02 1.05357E+03 2.73035E-03-1.34339E-02-7.82478E+01
 -1        61 3.51753E+01 1.85111E+02 5.83427E+02 1.93559E-02-1.51558E-02-9.16262E+01
 -1        62 1.37468E+02 2.50430E+02 6.99367E+02 7.07629E-04-3.33640E-02-6.98628E+01
 -1        63 3.55048E+01 1.85292E+02 5.83701E+02 1.93560E-02-1.51558E-02-9.17637E+01
 -1        64 1.37121E+02 2.50306E+02 6.99302E+02 7.07660E-04-3.33640E-02-7.00936E+01
 -1        65 3.97634E+01 1.74235E+02 5.42383E+02 2.23541E-02 7.51461E-03-3.13267E+01
 -1        66 1.05788E+02 1.81413E+02 4.99962E+02-3.76702E-02-3.54162E-03-1.71617E+01
 -1        67 3.97686E+01 1.74254E+02 5.42440E+02 2.23541E-02 7.51461E-03-3.13117E+01
 -1        68 1.04816E+02 1.81160E+02 5.00095E+02-3.76701E-02-3.54165E-03-1.70634E+01
 -1        69 6.53432E+01 1.66767E+02 4.91587E+02 4.33430E-02-8.72529E-03 2.31872E+01
 -1        70 1.66964E+02 2.07076E+02 5.24332E+02 5.57572E-02 3.07089E-02 2.58870E+01
 -1        71 6.62074E+01 1.67048E+02 4.91657E+02 4.33432E-02-8.72527E-03 2.32863E+01
 -1        72 1.67031E+02 2.06995E+02 5.23993E+02 5.57572E-02 3.07090E-02 2.61820E+01
 -1        73 7.69468E+01 1.55635E+02 4.42617E+02-9.91391E-03-2.76571E-02 1.08128E+01
 -1        74 1.17560E+02 1.87798E+02 5.09469E+02-1.82937E-02-4.65147E-02 6.61846E+01
 -1        75 7.77218E+01 1.56027E+02 4.43148E+02-9.91393E-03-2.76572E-02 1.06223E+01
 -1        76 1.17402E+02 1.87741E+02 5.09434E+02-1.82936E-02-4.65147E-02 6.60204E+01
 -1        77 5.24252E+01 1.05736E+02 3.00312E+02 6.98844E-02 1.45813E-02 1.29947E+00
 -1        78 4.20574E+02 3.23595E+02 6.59748E+02 3.88412E-02 3.46340E-02-6.37540E+01
 -1        79 5.36246E+01 1.06317E+02 3.01049E+02 6.98847E-02 1.45812E-02 9.60791E-01
 -1        80 4.19747E+02 3.23139E+02 6.59056E+02 3.88410E-02 3.46341E-02-6.33716E+01
 -1        81 5.83239E+01 7.47593E+01 1.92002E+02-1.32643E-01-1.65942E-03 5.50901E+01
 -1        82-3.98477E+02-1.03895E+01 3.65108E+02 6.81781E-02-8.57772E-02-8.93364E+01
 -1        83 5.85427E+01 7.47742E+01 1.91820E+02-1.32644E-01-1.65851E-03 5.34478E+01
 -1        84-3.95355E+02-9.66867E+00 3.64379E+02 6.81795E-02-8.57771E-02-8.96600E+01
 -1        85 2.67722E+03 2.63928E+03 6.27725E+03 5.42610E-06-8.55255E-06 1.87787E+03
 -1        86 5.77180E+02 1.57873E+03 4.76530E+03-6.06326E-03 8.42675E-03 6.43101E+02
 -1        87 2.67729E+03 2.63935E+03 6.27743E+03 5.42894E-06-8.55350E-06 1.87783E+03
 -1        88 5.77724E+02 1.57898E+03 4.76562E+03-6.06327E-03 8.42676E-03 6.43048E+02
 -1        89 7.01077E+02 1.27129E+03 3.58368E+03-1.04279E-03 1.00322E-02 3.51837E+02
 -1        90 7.01092E+02 1.27130E+03 3.58372E+03-1.04278E-03 1.00322E-02 3.51887E+02
 -1        91 3.04872E+02 7.74766E+02 2.29944E+03 1.71816E-02 1.20222E-02 3.33292E+02
 -1        92 3.04942E+02 7.74770E+02 2.29939E+03 1.71816E-02 1.20222E-02 3.33287E+02
 -1        93 5.60305E+01 3.89184E+02 1.24962E+03 1.03787E-02-4.61843E-04 2.77899E+02
 -1        94 5.60553E+01 3.89174E+02 1.24956E+03 1.03787E-02-4.61842E-04 2.77906E+02
 -1        95-1.75696E+02 3.39187E+01 2.90732E+02 9.01804E-03 4.06958E-03 2.19104E+02
 -1        96-1.75605E+02 3.39714E+01 2.90818E+02 9.01804E-03 4.06958E-03 2.19083E+02
 -1        97-3.53543E+02-2.45710E+02-4.64651E+02 2.50533E-03 4.93011E-03 1.40485E+02
 -1        98-3.53401E+02-2.45663E+02-4.64636E+02 2.50534E-03 4.93011E-03 1.40463E+02
 -1        99-4.70113E+02-4.23837E+02-9.40714E+02 1.21436E-02-1.53115E-03 6.81422E+01
 -1       100-4.70027E+02-4.23819E+02-9.40741E+02 1.21436E-02-1.53115E-03 6.81488E+01
 -1       101-5.25179E+02-5.10550E+02-1.17363E+03 7.65644E-03-2.53566E-03 1.91994E+01
 -1       102-5.25047E+02-5.10481E+02-1.17353E+03 7.65645E-03-2.53566E-03 1.91834E+01
 -1       103-5.31726E+02-5.31415E+02-1.23616E+03-1.75462E-04 3.47359E-03-1.67696E+01
 -1       104-5.31514E+02-5.31301E+02-1.23599E+03-1.75463E-04 3.47359E-03-1.67907E+01
 -1       105-4.96369E+02-4.89241E+02-1.13148E+03-4.67258E-03 6.24428E-03-5.52050E+01
 -1       106-4.96072E+02-4.89109E+02-1.13133E+03-4.67259E-03 6.24428E-03-5.52381E+01
 -1       107-4.26989E+02-3.89859E+02-8.71001E+02-1.46094E-02 5.51028E-03-7.81469E+01
 -1       108-4.26567E+02-3.89697E+02-8.70883E+02-1.46094E-02 5.51028E-03-7.81624E+01
 -1       109-3.41187E+02-2.64211E+02-5.39091E+02-8.57468E-03-1.12499E-03-7.98067E+01
 -1       110-3.40690E+02-2.64039E+02-5.39017E+02-8.57470E-03-1.12499E-03-7.97950E+01
 -1       111-2.47286E+02-1.31637E+02-1.91457E+02-1.40213E-02-1.08726E-02-8.03115E+01
 -1       112-2.46696E+02-1.31404E+02-1.91273E+02-1.40213E-02-1.08727E-02-8.02932E+01
 -1       113-1.45353E+02 6.41068E+00 1.67125E+02-2.33604E-02-9.25016E-03-8.42879E+01
 -1       114-1.44343E+02 6.91267E+00 1.67788E+02-2.33605E-02-9.25018E-03-8.43111E+01
 -1       115-6.64018E+01 1.20704E+02 4.70010E+02-2.41480E-02 1.57706E-02-7.70441E+01
 -1       116-6.53789E+01 1.21206E+02 4.70661E+02-2.41481E-02 1.57707E-02-7.72659E+01
 -1       117-1.84747E+01 1.74918E+02 6.03274E+02-3.55116E-02 1.55031E-02-3.33568E+01
 -1       118-1.74872E+01 1.75212E+02 6.03266E+02-3.55118E-02 1.55031E-02-3.34569E+01
 -1       119 1.97119E+00 1.64671E+02 5.48299E+02-4.16998E-02-3.45393E-02-4.84741E+00
 -1       120 3.88135E+00 1.65563E+02 5.49361E+02-4.17001E-02-3.45394E-02-4.83283E+00
 -1       121 5.71718E+01 1.44431E+02 4.25014E+02-8.22942E-02 4.36308E-02-2.95379E-01
 -1       122 5.89558E+01 1.45347E+02 4.26286E+02-8.22949E-02 4.36312E-02-7.89891E-01
 -1       123-1.96475E+02 5.67034E+00 2.16057E+02-6.41135E-02 2.47385E-02-1.24820E+02
 -1       124-1.93608E+02 6.93407E+00 2.17400E+02-6.41141E-02 2.47386E-02-1.24535E+02
 -1       125 7.71872E+02 4.13848E+02 6.10763E+02 3.31629E-02 5.69418E-02-3.24514E+02
 -1       126 7.68667E+02 4.12644E+02 6.09945E+02 3.31628E-02 5.69416E-02-3.24277E+02
 -3
    1PSTEP                        19           5           2          
  100CL  105 1.50000E-01         126                     1    5           1
 -4  TOSTRAIN    6    1
 -5  EXX         1    4    1    1
 -5  EYY         1    4    2    2
 -5  EZZ         1    4    3    3
 -5  EXY         1    4    1    2
 -5  EYZ         1    4    2    3
 -5  EZX         1    4    3    1
 -1         1-9.14105E-06-4.13942E-15-9.13072E-03 5.86629E-11-4.00756E-14 5.21039E-03
 -1         2-9.52171E-06 1.15124E-16 1.06263E-03 6.38937E-12-1.68012E-13 4.19676E-03
 -1         3-6.25176E-04-1.19872E-15 1.22124E-03 5.83632E-08 4.27392E-10 1.48785E-03
 -1         4 2.07478E-03 2.29070E-14-7.68587E-03-1.37175E-07 5.19202E-09 1.69507E-03
 -1         5-9.14012E-06-4.13942E-15-9.13065E-03 5.86093E-11-4.00750E-14 5.20957E-03
 -1         6-9.52126E-06 1.15124E-16 1.06263E-03 6.39619E-12-1.68012E-13 4.19711E-03
 -1         7-6.25880E-04-1.19872E-15 1.22136E-03 5.83632E-08 4.27379E-10 1.48778E-03
 -1         8 2.07243E-03 2.29070E-14-7.68582E-03-1.37175E-07 5.19210E-09 1.69472E-03
 -1         9-6.59097E-04-3.16087E-15 1.41490E-03-5.02000E-09 2.06571E-08 1.40330E-03
 -1        10 5.86951E-04 2.66186E-14-4.67671E-03-1.26368E-07 6.96948E-09 9.35391E-04
 -1        11-6.59831E-04-3.16087E-15 1.41502E-03-5.02000E-09 2.06571E-08 1.40327E-03
 -1        12 5.85495E-04 2.66186E-14-4.67684E-03-1.26368E-07 6.96943E-09 9.35506E-04
 -1        13-7.10106E-04 6.49957E-15 1.52597E-03 7.30368E-08 1.97446E-08 1.13064E-03
 -1        14 1.60277E-04 2.48119E-15-1.88444E-03-7.16401E-08-1.75779E-08 8.90928E-04
 -1        15-7.10866E-04 6.49957E-15 1.52595E-03 7.30367E-08 1.97446E-08 1.13061E-03
 -1        16 1.58540E-04 2.48119E-15-1.88439E-03-7.16400E-08-1.75779E-08 8.90755E-04
 -1        17-7.74046E-04 2.40103E-16 1.65953E-03 4.31669E-08 1.70482E-08 1.02561E-03
 -1        18-4.18807E-04 1.62797E-14 4.87688E-04-1.09753E-07 1.49383E-08 7.73874E-04
 -1        19-7.74907E-04 2.40103E-16 1.65950E-03 4.31668E-08 1.70482E-08 1.02556E-03
 -1        20-4.20642E-04 1.62797E-14 4.87776E-04-1.09753E-07 1.49383E-08 7.73810E-04
 -1        21-8.02536E-04 7.61352E-16 1.73911E-03 3.95322E-08 1.56400E-08 8.63620E-04
 -1        22-8.86316E-04 1.00887E-14 2.59480E-03-8.89257E-08-2.99187E-09 6.61852E-04
 -1        23-8.03244E-04 7.61352E-16 1.73901E-03 3.95322E-08 1.56400E-08 8.63541E-04
 -1        24-8.87858E-04 1.00887E-14 2.59462E-03-8.89255E-08-2.99187E-09 6.61771E-04
 -1        25-8.07932E-04-1.02618E-15 1.76245E-03 3.37098E-08 6.32556E-10 6.03047E-04
 -1        26-1.24059E-03 1.42836E-14 4.20472E-03-9.95613E-08-1.61474E-08 4.65265E-04
 -1        27-8.08576E-04-1.02618E-15 1.76231E-03 3.37097E-08 6.32559E-10 6.03005E-04
 -1        28-1.24219E-03 1.42836E-14 4.20468E-03-9.95611E-08-1.61474E-08 4.65173E-04
 -1        29-8.00747E-04 3.16435E-15 1.75195E-03 5.78745E-08-7.95118E-09 3.29710E-04
 -1        30-1.43736E-03 7.94467E-15 5.16997E-03-8.58466E-08-9.28410E-09 2.60634E-04
 -1        31-8.01499E-04 3.16435E-15 1.75198E-03 5.78745E-08-7.95118E-09 3.29720E-04
 -1        32-1.43908E-03 7.94467E-15 5.17010E-03-8.58464E-08-9.28410E-09 2.60628E-04
 -1        33-7.80038E-04 2.81759E-17 1.71729E-03 4.21345E-08 3.88841E-09 1.31054E-04
 -1        34-1.50556E-03 1.30650E-14 5.58876E-03-9.91962E-08 7.35578E-09 1.11235E-04
 -1        35-7.80783E-04 2.81759E-17 1.71746E-03 4.21345E-08 3.88840E-09 1.31004E-04
 -1        36-1.50725E-03 1.30650E-14 5.58892E-03-9.91960E-08 7.35579E-09 1.11189E-04
 -1        37-7.49540E-04-1.01879E-15 1.66488E-03 2.61782E-08 2.04067E-08-2.69407E-05
 -1        38-1.49443E-03 1.78817E-14 5.62777E-03-1.07799E-07 1.78647E-08-8.23343E-06
 -1        39-7.50183E-04-1.01879E-15 1.66502E-03 2.61782E-08 2.04067E-08-2.69606E-05
 -1        40-1.49603E-03 1.78817E-14 5.62784E-03-1.07799E-07 1.78647E-08-8.23174E-06
 -1        41-7.12626E-04 2.45106E-16 1.60502E-03 2.91964E-08 2.65295E-08-2.00735E-04
 -1        42-1.40061E-03 1.30462E-14 5.30949E-03-9.32723E-08 1.85615E-08-1.42410E-04
 -1        43-7.13093E-04 2.45106E-16 1.60499E-03 2.91964E-08 2.65295E-08-2.00751E-04
 -1        44-1.40208E-03 1.30462E-14 5.30943E-03-9.32722E-08 1.85615E-08-1.42392E-04
 -1        45-6.74125E-04-1.49200E-15 1.54875E-03 2.28522E-08 1.64654E-08-3.12637E-04
 -1        46-1.22704E-03 1.07573E-14 4.66952E-03-8.58315E-08 9.40000E-09-2.28011E-04
 -1        47-6.74354E-04-1.49200E-15 1.54861E-03 2.28522E-08 1.64654E-08-3.12569E-04
 -1        48-1.22835E-03 1.07573E-14 4.66949E-03-8.58314E-08 9.39998E-09-2.27925E-04
 -1        49-6.40219E-04 3.69163E-15 1.49726E-03 6.04976E-08 2.16708E-09-3.31503E-04
 -1        50-1.02935E-03 1.16502E-15 3.88060E-03-5.02667E-08 1.52794E-08-2.39039E-04
 -1        51-6.40353E-04 3.69163E-15 1.49715E-03 6.04976E-08 2.16709E-09-3.31360E-04
 -1        52-1.03068E-03 1.16502E-15 3.88063E-03-5.02666E-08 1.52794E-08-2.38867E-04
 -1        53-5.99196E-04 1.57848E-15 1.43502E-03 5.14484E-08-1.22198E-09-3.35809E-04
 -1        54-8.21147E-04 1.45049E-15 3.05115E-03-5.47894E-08 1.43859E-08-2.37919E-04
 -1        55-5.99251E-04 1.57848E-15 1.43485E-03 5.14484E-08-1.22198E-09-3.35655E-04
 -1        56-8.22422E-04 1.45049E-15 3.05080E-03-5.47894E-08 1.43859E-08-2.37648E-04
 -1        57-5.38461E-04 5.40892E-15 1.36117E-03 6.20313E-08-2.61001E-08-3.46487E-04
 -1        58-5.82038E-04 1.10479E-15 2.20205E-03 8.79389E-09-4.35390E-08-2.49461E-04
 -1        59-5.37952E-04 5.40892E-15 1.36088E-03 6.20313E-08-2.61001E-08-3.46493E-04
 -1        60-5.82676E-04 1.10479E-15 2.20132E-03 8.79388E-09-4.35390E-08-2.49395E-04
 -1        61-4.88956E-04 6.07124E-15 1.29174E-03 6.27996E-08-4.92830E-08-2.93625E-04
 -1        62-3.68135E-04 1.66975E-14 1.45459E-03 2.06511E-09-1.08222E-07-2.22940E-04
 -1        63-4.88473E-04 6.07124E-15 1.29204E-03 6.27997E-08-4.92830E-08-2.94072E-04
 -1        64-3.68864E-04 1.66975E-14 1.45478E-03 2.06517E-09-1.08222E-07-2.23688E-04
 -1        65-4.37883E-04-1.18970E-15 1.19351E-03 7.26985E-08 2.42697E-08-9.88379E-05
 -1        66-2.46163E-04-1.63653E-15 1.03291E-03-1.22424E-07-1.13058E-08-5.35546E-05
 -1        67-4.37926E-04-1.18970E-15 1.19363E-03 7.26984E-08 2.42697E-08-9.87892E-05
 -1        68-2.48505E-04-1.63653E-15 1.03415E-03-1.22424E-07-1.13059E-08-5.32305E-05
 -1        69-3.29652E-04 2.09228E-14 1.05287E-03 1.40825E-07-2.85108E-08 7.69799E-05
 -1        70-1.30134E-04 4.53651E-14 1.02827E-03 1.81278E-07 9.94051E-08 8.53966E-05
 -1        71-3.27750E-04 2.09228E-14 1.05218E-03 1.40825E-07-2.85108E-08 7.72987E-05
 -1        72-1.29649E-04 4.53651E-14 1.02743E-03 1.81278E-07 9.94051E-08 8.63526E-05
 -1        73-2.55677E-04-1.73232E-14 9.30531E-04-3.23320E-08-8.97269E-08 3.66181E-05
 -1        74-2.27744E-04 1.53804E-14 1.04218E-03-5.95919E-08-1.50862E-07 2.16311E-04
 -1        75-2.54431E-04-1.73232E-14 9.30984E-04-3.23319E-08-8.97270E-08 3.59985E-05
 -1        76-2.28071E-04 1.53804E-14 1.04226E-03-5.95918E-08-1.50862E-07 2.15779E-04
 -1        77-1.72955E-04 1.08596E-14 6.31363E-04 2.27166E-07 4.70040E-08 5.08309E-06
 -1        78 3.13759E-04 2.75530E-14 1.09018E-03 1.26313E-07 1.12207E-07-2.05243E-04
 -1        79-1.70948E-04 1.08596E-14 6.31874E-04 2.27167E-07 4.70037E-08 3.98222E-06
 -1        80 3.12549E-04 2.75530E-14 1.08941E-03 1.26313E-07 1.12208E-07-2.04008E-04
 -1        81-5.48790E-05 1.34462E-13 3.79859E-04-4.31035E-07-4.68360E-09 1.80430E-04
 -1        82-1.26477E-03 7.03986E-14 1.21922E-03 2.21111E-07-2.78969E-07-2.84443E-04
 -1        83-5.42058E-05 1.34462E-13 3.79239E-04-4.31036E-07-4.68133E-09 1.75091E-04
 -1        84-1.25695E-03 7.03986E-14 1.21452E-03 2.21113E-07-2.78969E-07-2.85524E-04
 -1        85-9.90237E-06 7.94639E-18 1.15578E-02 3.49673E-11-1.81395E-13 5.88555E-03
 -1        86-3.32513E-03 8.92242E-17 1.01998E-02-2.01318E-08 2.68794E-08 1.90203E-03
 -1        87-9.90241E-06 7.94639E-18 1.15581E-02 3.49719E-11-1.81395E-13 5.88543E-03
 -1        88-3.32419E-03 8.92242E-17 1.02000E-02-2.01318E-08 2.68795E-08 1.90186E-03
 -1        89-1.90515E-03 1.58745E-15 7.43975E-03-4.02511E-09 3.21982E-08 9.56893E-04
 -1        90-1.90516E-03 1.58745E-15 7.43983E-03-4.02511E-09 3.21982E-08 9.57051E-04
 -1        91-1.58049E-03 8.06972E-15 4.94803E-03 5.48619E-08 4.00508E-08 9.24874E-04
 -1        92-1.58027E-03 8.06972E-15 4.94783E-03 5.48619E-08 4.00508E-08 9.24866E-04
 -1        93-1.12928E-03 1.81507E-15 2.81920E-03 3.37667E-08-6.66003E-10 8.00266E-04
 -1        94-1.12917E-03 1.81507E-15 2.81905E-03 3.37668E-08-6.66009E-10 8.00295E-04
 -1        95-7.18757E-04 1.93483E-15 8.66295E-04 2.89715E-08 1.39326E-08 6.71437E-04
 -1        96-7.18630E-04 1.93483E-15 8.66397E-04 2.89715E-08 1.39326E-08 6.71368E-04
 -1        97-3.75278E-04 4.68258E-17-6.89003E-04 7.76862E-09 1.62208E-08 4.64410E-04
 -1        98-3.74966E-04 4.68258E-17-6.89111E-04 7.76862E-09 1.62208E-08 4.64349E-04
 -1        99-1.64137E-04 2.79427E-15-1.67098E-03 3.96083E-08-4.20157E-09 2.52351E-04
 -1       100-1.63918E-04 2.79427E-15-1.67112E-03 3.96083E-08-4.20156E-09 2.52380E-04
 -1       101-5.45202E-05 1.03585E-15-2.15545E-03 2.50488E-08-7.86610E-09 9.67314E-05
 -1       102-5.43148E-05 1.03585E-15-2.15536E-03 2.50488E-08-7.86611E-09 9.66808E-05
 -1       103-4.65439E-06-2.19839E-16-2.29546E-03-6.98521E-10 1.13162E-08-2.68860E-05
 -1       104-4.33164E-06-2.19839E-16-2.29529E-03-6.98519E-10 1.13162E-08-2.69534E-05
 -1       105-2.46375E-05 4.21926E-16-2.09317E-03-1.53476E-08 2.02243E-08-1.63080E-04
 -1       106-2.41028E-05 4.21926E-16-2.09313E-03-1.53476E-08 2.02243E-08-1.63184E-04
 -1       107-1.21208E-04 3.21678E-15-1.56686E-03-4.75832E-08 1.77207E-08-2.47831E-04
 -1       108-1.20362E-04 3.21678E-15-1.56701E-03-4.75833E-08 1.77207E-08-2.47877E-04
 -1       109-2.51085E-04-1.36161E-15-8.93376E-04-2.78678E-08-3.71113E-09-2.58472E-04
 -1       110-2.50024E-04-1.36161E-15-8.93695E-04-2.78679E-08-3.71113E-09-2.58431E-04
 -1       111-3.77245E-04 2.85081E-15-1.93198E-04-4.56064E-08-3.53428E-08-2.60923E-04
 -1       112-3.76081E-04 2.85081E-15-1.93357E-04-4.56065E-08-3.53428E-08-2.60863E-04
 -1       113-4.94884E-04 6.11551E-15 5.22649E-04-7.60026E-08-2.99520E-08-2.72123E-04
 -1       114-4.93228E-04 6.11551E-15 5.23168E-04-7.60027E-08-2.99520E-08-2.72198E-04
 -1       115-6.09777E-04 6.72774E-15 1.13314E-03-7.83910E-08 5.13144E-08-2.46655E-04
 -1       116-6.08083E-04 6.72774E-15 1.13363E-03-7.83912E-08 5.13144E-08-2.47376E-04
 -1       117-6.29603E-04 1.57811E-14 1.38815E-03-1.15353E-07 5.04824E-08-1.04768E-04
 -1       118-6.27346E-04 1.57811E-14 1.38717E-03-1.15353E-07 5.04824E-08-1.05097E-04
 -1       119-5.29170E-04 1.93237E-14 1.24326E-03-1.35707E-07-1.11893E-07-1.33271E-05
 -1       120-5.25852E-04 1.93237E-14 1.24381E-03-1.35707E-07-1.11893E-07-1.32825E-05
 -1       121-2.83610E-04 1.37116E-13 9.09882E-04-2.67278E-07 1.41958E-07 4.98305E-07
 -1       122-2.80791E-04 1.37116E-13 9.11037E-04-2.67279E-07 1.41958E-07-1.10956E-06
 -1       123-6.59670E-04 4.57278E-14 6.83950E-04-2.08264E-07 8.06344E-08-4.03478E-04
 -1       124-6.54445E-04 4.57278E-14 6.84205E-04-2.08265E-07 8.06343E-08-4.02555E-04
 -1       125 1.15501E-03-2.11378E-16 6.40989E-04 1.08250E-07 1.84671E-07-1.05136E-03
 -1       126 1.14853E-03-2.11378E-16 6.42236E-04 1.08250E-07 1.84670E-07-1.05059E-03
 -3
    1PSTEP                        20           5           2          
  100CL  105 1.50000E-01         126                     1    5           1
 -4  ERROR       1    1
 -5  STR(%)      1    1    0    0
 -1         1 7.22599E+01
 -1         2 7.22599E+01
 -1         3 7.49960E+01
 -1         4 7.49960E+01
 -1         5 7.22599E+01
 -1         6 7.22599E+01
 -1         7 7.49960E+01
 -1         8 7.49960E+01
 -1         9 7.92830E+01
 -1        10 7.92830E+01
 -1        11 7.92830E+01
 -1        12 7.92830E+01
 -1        13 7.92830E+01
 -1        14 7.92830E+01
 -1        15 7.92830E+01
 -1        16 7.92830E+01
 -1        17 7.10612E+01
 -1        18 7.10612E+01
 -1        19 7.10612E+01
 -1        20 7.10612E+01
 -1        21 6.55906E+01
 -1        22 2.24369E+01
 -1        23 6.55906E+01
 -1        24 2.24369E+01
 -1        25 1.04648E+02
 -1        26 3.38158E+01
 -1        27 1.04648E+02
 -1        28 3.38158E+01
 -1        29 1.04648E+02
 -1        30 3.71121E+01
 -1        31 1.04648E+02
 -1        32 3.71121E+01
 -1        33 8.98358E+01
 -1        34 3.81817E+01
 -1        35 8.98358E+01
 -1        36 3.81817E+01
 -1        37 8.83904E+01
 -1        38 3.82585E+01
 -1        39 8.83904E+01
 -1        40 3.82585E+01
 -1        41 9.16935E+01
 -1        42 3.82585E+01
 -1        43 9.16935E+01
 -1        44 3.82585E+01
 -1        45 1.05573E+02
 -1        46 3.72519E+01
 -1        47 1.05573E+02
 -1        48 3.72519E+01
 -1        49 1.05573E+02
 -1        50 3.39004E+01
 -1        51 1.05573E+02
 -1        52 3.39004E+01
 -1        53 9.26750E+01
 -1        54 2.84929E+01
 -1        55 9.26750E+01
 -1        56 2.84929E+01
 -1        57 5.74364E+01
 -1        58 2.00563E+01
 -1        59 5.74364E+01
 -1        60 2.00563E+01
 -1        61 1.67034E+01
 -1        62 6.71440E+00
 -1        63 1.67034E+01
 -1        64 6.71440E+00
 -1        65 5.21087E+00
 -1        66 4.16410E+00
 -1        67 5.21087E+00
 -1        68 4.16410E+00
 -1        69 5.21087E+00
 -1        70 4.16410E+00
 -1        71 5.21087E+00
 -1        72 4.16410E+00
 -1        73 1.44518E+01
 -1        74 8.87210E+00
 -1        75 1.44518E+01
 -1        76 8.87210E+00
 -1        77 6.31897E+01
 -1        78 6.31897E+01
 -1        79 6.31897E+01
 -1        80 6.31897E+01
 -1        81 6.31897E+01
 -1        82 6.31897E+01
 -1        83 6.31897E+01
 -1        84 6.31897E+01
 -1        85 5.85034E+01
 -1        86 5.85034E+01
 -1        87 5.85034E+01
 -1        88 5.85034E+01
 -1        89 4.89734E+01
 -1        90 4.89734E+01
 -1        91 4.36940E+01
 -1        92 4.36940E+01
 -1        93 2.82918E+01
 -1        94 2.82918E+01
 -1        95 6.55906E+01
 -1        96 6.55906E+01
 -1        97 1.04648E+02
 -1        98 1.04648E+02
 -1        99 1.04648E+02
 -1       100 1.04648E+02
 -1       101 8.98358E+01
 -1       102 8.98358E+01
 -1       103 8.83904E+01
 -1       104 8.83904E+01
 -1       105 9.16935E+01
 -1       106 9.16935E+01
 -1       107 1.05573E+02
 -1       108 1.05573E+02
 -1       109 1.05573E+02
 -1       110 1.05573E+02
 -1       111 9.26750E+01
 -1       112 9.26750E+01
 -1       113 5.74364E+01
 -1       114 5.74364E+01
 -1       115 1.67034E+01
 -1       116 1.67034E+01
 -1       117 5.21087E+00
 -1       118 5.21087E+00
 -1       119 5.21087E+00
 -1       120 5.21087E+00
 -1       121 1.44518E+01
 -1       122 1.44518E+01
 -1       123 5.59192E+01
 -1       124 5.59192E+01
 -1       125 5.59192E+01
 -1       126 5.59192E+01
 -3
    1PSTEP                        21           6           2          
  100CL  106 1.60000E-01         126                     1    6           1
 -4  DISP        4    1
 -5  D1          1    2    1    0
 -5  D2          1    2    2    0
 -5  D3          1    2    3    0
 -5  ALL         1    2    0    0    1ALL
 -1         1 0.00000E+00 0.00000E+00 0.00000E+00
 -1         2 0.00000E+00 0.00000E+00 0.00000E+00
 -1         3 4.20926E-04 0.00000E+00 4.92818E-05
 -1         4 5.31732E-04 0.00000E+00-5.03553E-04
 -1         5 0.00000E+00 0.00000E+00 0.00000E+00
 -1         6 0.00000E+00 0.00000E+00 0.00000E+00
 -1         7 4.20854E-04 0.00000E+00 4.92948E-05
 -1         8 5.31781E-04 0.00000E+00-5.03538E-04
 -1         9 1.39935E-03 0.00000E+00 1.07805E-04
 -1        10 1.42729E-03 0.00000E+00-8.78641E-04
 -1        11 1.39934E-03 0.00000E+00 1.07826E-04
 -1        12 1.42733E-03 0.00000E+00-8.78622E-04
 -1        13 2.69502E-03 0.00000E+00 1.58129E-04
 -1        14 2.69399E-03 0.00000E+00-1.09530E-03
 -1        15 2.69500E-03 0.00000E+00 1.58149E-04
 -1        16 2.69404E-03 0.00000E+00-1.09526E-03
 -1        17 4.16876E-03 0.00000E+00 2.04248E-04
 -1        18 4.13405E-03 0.00000E+00-1.17653E-03
 -1        19 4.16871E-03 0.00000E+00 2.04259E-04
 -1        20 4.13408E-03 0.00000E+00-1.17651E-03
 -1        21 5.68394E-03 0.00000E+00 2.53559E-04
 -1        22 5.62406E-03 0.00000E+00-1.13765E-03
 -1        23 5.68392E-03 0.00000E+00 2.53559E-04
 -1        24 5.62410E-03 0.00000E+00-1.13765E-03
 -1        25 7.13591E-03 0.00000E+00 3.11267E-04
 -1        26 7.05786E-03 0.00000E+00-9.98457E-04
 -1        27 7.13589E-03 0.00000E+00 3.11264E-04
 -1        28 7.05791E-03 0.00000E+00-9.98461E-04
 -1        29 8.44673E-03 0.00000E+00 3.79807E-04
 -1        30 8.35640E-03 0.00000E+00-7.78300E-04
 -1        31 8.44669E-03 0.00000E+00 3.79801E-04
 -1        32 8.35643E-03 0.00000E+00-7.78313E-04
 -1        33 9.55599E-03 0.00000E+00 4.59692E-04
 -1        34 9.45908E-03 0.00000E+00-4.96634E-04
 -1        35 9.55598E-03 0.00000E+00 4.59686E-04
 -1        36 9.45913E-03 0.00000E+00-4.96636E-04
 -1        37 1.04157E-02 0.00000E+00 5.49220E-04
 -1        38 1.03192E-02 0.00000E+00-1.80351E-04
 -1        39 1.04157E-02 0.00000E+00 5.49221E-04
 -1        40 1.03192E-02 0.00000E+00-1.80337E-04
 -1        41 1.10213E-02 0.00000E+00 6.44671E-04
 -1        42 1.09303E-02 0.00000E+00 1.40095E-04
 -1        43 1.10212E-02 0.00000E+00 6.44679E-04
 -1        44 1.09303E-02 0.00000E+00 1.40099E-04
 -1        45 1.13942E-02 0.00000E+00 7.42318E-04
 -1        46 1.13120E-02 0.00000E+00 4.42549E-04
 -1        47 1.13942E-02 0.00000E+00 7.42334E-04
 -1        48 1.13120E-02 0.00000E+00 4.42551E-04
 -1        49 1.15598E-02 0.00000E+00 8.38812E-04
 -1        50 1.14897E-02 0.00000E+00 7.08472E-04
 -1        51 1.15597E-02 0.00000E+00 8.38834E-04
 -1        52 1.14898E-02 0.00000E+00 7.08478E-04
 -1        53 1.15698E-02 0.00000E+00 9.31045E-04
 -1        54 1.15136E-02 0.00000E+00 9.23959E-04
 -1        55 1.15697E-02 0.00000E+00 9.31056E-04
 -1        56 1.15137E-02 0.00000E+00 9.23936E-04
 -1        57 1.14840E-02 0.00000E+00 1.01767E-03
 -1        58 1.14401E-02 0.00000E+00 1.08910E-03
 -1        59 1.14839E-02 0.00000E+00 1.01767E-03
 -1        60 1.14402E-02 0.00000E+00 1.08907E-03
 -1        61 1.13442E-02 0.00000E+00 1.09782E-03
 -1        62 1.13120E-02 0.00000E+00 1.20894E-03
 -1        63 1.13441E-02 0.00000E+00 1.09784E-03
 -1        64 1.13120E-02 0.00000E+00 1.20895E-03
 -1        65 1.11949E-02 0.00000E+00 1.16907E-03
 -1        66 1.11752E-02 0.00000E+00 1.28842E-03
 -1        67 1.11948E-02 0.00000E+00 1.16906E-03
 -1        68 1.11753E-02 0.00000E+00 1.28843E-03
 -1        69 1.10590E-02 0.00000E+00 1.23210E-03
 -1        70 1.10481E-02 0.00000E+00 1.33697E-03
 -1        71 1.10589E-02 0.00000E+00 1.23209E-03
 -1        72 1.10482E-02 0.00000E+00 1.33693E-03
 -1        73 1.09612E-02 0.00000E+00 1.28518E-03
 -1        74 1.09518E-02 0.00000E+00 1.36933E-03
 -1        75 1.09612E-02 0.00000E+00 1.28521E-03
 -1        76 1.09518E-02 0.00000E+00 1.36944E-03
 -1        77 1.08951E-02 0.00000E+00 1.32722E-03
 -1        78 1.09034E-02 0.00000E+00 1.39191E-03
 -1        79 1.08949E-02 0.00000E+00 1.32719E-03
 -1        80 1.09034E-02 0.00000E+00 1.39180E-03
 -1        81 1.08347E-02 0.00000E+00 1.34497E-03
 -1        82 1.07809E-02 0.00000E+00 1.45109E-03
 -1        83 1.08349E-02 0.00000E+00 1.34498E-03
 -1        84 1.07808E-02 0.00000E+00 1.45126E-03
 -1        85 0.00000E+00 0.00000E+00 0.00000E+00
 -1        86 6.01776E-04 0.00000E+00 6.12801E-04
 -1        87 0.00000E+00 0.00000E+00 0.00000E+00
 -1        88 6.01823E-04 0.00000E+00 6.12818E-04
 -1        89 1.51584E-03 0.00000E+00 1.09405E-03
 -1        90 1.51589E-03 0.00000E+00 1.09408E-03
 -1        91 2.79311E-03 0.00000E+00 1.40986E-03
 -1        92 2.79314E-03 0.00000E+00 1.40987E-03
 -1        93 4.24219E-03 0.00000E+00 1.58604E-03
 -1        94 4.24221E-03 0.00000E+00 1.58606E-03
 -1        95 5.73815E-03 0.00000E+00 1.64786E-03
 -1        96 5.73818E-03 0.00000E+00 1.64786E-03
 -1        97 7.17341E-03 0.00000E+00 1.62507E-03
 -1        98 7.17345E-03 0.00000E+00 1.62507E-03
 -1        99 8.47026E-03 0.00000E+00 1.54218E-03
 -1       100 8.47029E-03 0.00000E+00 1.54218E-03
 -1       101 9.56928E-03 0.00000E+00 1.41924E-03
 -1       102 9.56934E-03 0.00000E+00 1.41923E-03
 -1       103 1.04240E-02 0.00000E+00 1.28008E-03
 -1       104 1.04240E-02 0.00000E+00 1.28006E-03
 -1       105 1.10293E-02 0.00000E+00 1.14867E-03
 -1       106 1.10293E-02 0.00000E+00 1.14868E-03
 -1       107 1.14057E-02 0.00000E+00 1.03971E-03
 -1       108 1.14057E-02 0.00000E+00 1.03973E-03
 -1       109 1.15775E-02 0.00000E+00 9.64890E-04
 -1       110 1.15776E-02 0.00000E+00 9.64902E-04
 -1       111 1.15944E-02 0.00000E+00 9.32830E-04
 -1       112 1.15945E-02 0.00000E+00 9.32855E-04
 -1       113 1.15144E-02 0.00000E+00 9.40206E-04
 -1       114 1.15144E-02 0.00000E+00 9.40236E-04
 -1       115 1.13781E-02 0.00000E+00 9.78775E-04
 -1       116 1.13782E-02 0.00000E+00 9.78756E-04
 -1       117 1.12293E-02 0.00000E+00 1.04209E-03
 -1       118 1.12294E-02 0.00000E+00 1.04203E-03
 -1       119 1.10936E-02 0.00000E+00 1.12325E-03
 -1       120 1.10937E-02 0.00000E+00 1.12326E-03
 -1       121 1.09863E-02 0.00000E+00 1.20539E-03
 -1       122 1.09864E-02 0.00000E+00 1.20529E-03
 -1       123 1.09282E-02 0.00000E+00 1.26246E-03
 -1       124 1.09283E-02 0.00000E+00 1.26248E-03
 -1       125 1.07841E-02 0.00000E+00 1.29868E-03
 -1       126 1.07839E-02 0.00000E+00 1.29864E-03
 -3
    1PSTEP                        22           6           2          
  100CL  106 1.60000E-01         126                     1    6           1
 -4  STRESS      6    1
 -5  SXX         1    4    1    1
 -5  SYY         1    4    2    2
 -5  SZZ         1    4    3    3
 -5  SXY         1    4    1    2
 -5  SYZ         1    4    2    3
 -5  SZX         1    4    3    1
 -1         1-2.29230E+03-2.32266E+03-5.33592E+03-9.09270E-06 4.45746E-05 1.58333E+03
 -1         2 2.52284E+02 2.35498E+02 5.24751E+02 1.70987E-06-6.91251E-05 1.29822E+03
 -1         3-4.33291E+01 1.26836E+02 4.64355E+02-3.72237E-02 6.59108E-03 4.39156E+02
 -1         4-7.60045E+02-1.47730E+03-4.11011E+03 2.50440E-02 7.36378E-03 4.67643E+02
 -1         5-2.29223E+03-2.32259E+03-5.33576E+03-9.11809E-06 4.45730E-05 1.58348E+03
 -1         6 2.52331E+02 2.35556E+02 5.24885E+02 1.71031E-06-6.91253E-05 1.29800E+03
 -1         7-4.32555E+01 1.26889E+02 4.64478E+02-3.72237E-02 6.59108E-03 4.39144E+02
 -1         8-7.58680E+02-1.47669E+03-4.10945E+03 2.50442E-02 7.36380E-03 4.67708E+02
 -1         9-3.52823E+01 1.52436E+02 5.41043E+02-2.85518E-03 1.11369E-02 4.70668E+02
 -1        10-8.91284E+02-1.13806E+03-2.87479E+03 2.08070E-02 9.23069E-03 2.68313E+02
 -1        11-3.52607E+01 1.52454E+02 5.41085E+02-2.85518E-03 1.11370E-02 4.70725E+02
 -1        12-8.90713E+02-1.13778E+03-2.87441E+03 2.08070E-02 9.23070E-03 2.68303E+02
 -1        13-2.91301E+01 1.55095E+02 5.47668E+02-1.19715E-02 1.05020E-02 4.15037E+02
 -1        14-4.27992E+02-5.35270E+02-1.34932E+03 2.57974E-02 2.28363E-02 2.94354E+02
 -1        15-2.90648E+01 1.55106E+02 5.47641E+02-1.19715E-02 1.05020E-02 4.15033E+02
 -1        16-4.27212E+02-5.34942E+02-1.34901E+03 2.57975E-02 2.28364E-02 2.94408E+02
 -1        17-3.21721E+01 1.61911E+02 5.74488E+02-2.40490E-02 5.36258E-03 3.57810E+02
 -1        18-1.51988E+02-7.09703E+01-8.27895E+01 1.58620E-02 7.08577E-03 2.60263E+02
 -1        19-3.21065E+01 1.61912E+02 5.74426E+02-2.40490E-02 5.36257E-03 3.57811E+02
 -1        20-1.51248E+02-7.07088E+01-8.26575E+01 1.58620E-02 7.08577E-03 2.60255E+02
 -1        21-3.95904E+01 1.74982E+02 6.25612E+02-1.12254E-02 4.26402E-05 2.89740E+02
 -1        22 8.63006E+01 3.22511E+02 9.94387E+02 2.22342E-02 1.39008E-03 2.31202E+02
 -1        23-3.95747E+01 1.74970E+02 6.25557E+02-1.12254E-02 4.26376E-05 2.89777E+02
 -1        24 8.69633E+01 3.22772E+02 9.94594E+02 2.22342E-02 1.39008E-03 2.31229E+02
 -1        25-4.41456E+01 1.92559E+02 6.88353E+02-1.22205E-02-1.79016E-03 2.24650E+02
 -1        26 2.70385E+02 6.34499E+02 1.85884E+03 2.39488E-02-1.83863E-03 1.95967E+02
 -1        27-4.41132E+01 1.92566E+02 6.88342E+02-1.22205E-02-1.79016E-03 2.24632E+02
 -1        28 2.71103E+02 6.34785E+02 1.85908E+03 2.39489E-02-1.83863E-03 1.95944E+02
 -1        29-4.81305E+01 2.10088E+02 7.50258E+02-1.89890E-02-2.82358E-03 1.63055E+02
 -1        30 4.04900E+02 8.70004E+02 2.51923E+03 1.66131E-02-6.84582E-03 1.56719E+02
 -1        31-4.80815E+01 2.10108E+02 7.50271E+02-1.89890E-02-2.82358E-03 1.63060E+02
 -1        32 4.05646E+02 8.70325E+02 2.51955E+03 1.66131E-02-6.84583E-03 1.56703E+02
 -1        33-5.21458E+01 2.24603E+02 8.02423E+02-3.28601E-03-2.88581E-03 9.02164E+01
 -1        34 4.85541E+02 1.01998E+03 2.94650E+03 2.82152E-02-1.43941E-03 1.01598E+02
 -1        35-5.21306E+01 2.24618E+02 8.02458E+02-3.28601E-03-2.88581E-03 9.02123E+01
 -1        36 4.86260E+02 1.02032E+03 2.94693E+03 2.82152E-02-1.43942E-03 1.01587E+02
 -1        37-5.16288E+01 2.35215E+02 8.37132E+02-2.36735E-02 4.68978E-04 1.39793E+01
 -1        38 5.15642E+02 1.07398E+03 3.09939E+03 1.09564E-02 7.28247E-03 3.77076E+01
 -1        39-5.16112E+01 2.35241E+02 8.37200E+02-2.36735E-02 4.68987E-04 1.39177E+01
 -1        40 5.16372E+02 1.07430E+03 3.09973E+03 1.09564E-02 7.28247E-03 3.76499E+01
 -1        41-4.69744E+01 2.40661E+02 8.50756E+02-4.11958E-02 4.28791E-03-4.20059E+01
 -1        42 4.98882E+02 1.04135E+03 3.00532E+03-3.08664E-03 1.88666E-03-1.27648E+01
 -1        43-4.69395E+01 2.40698E+02 8.50840E+02-4.11958E-02 4.28791E-03-4.19722E+01
 -1        44 4.99648E+02 1.04166E+03 3.00559E+03-3.08665E-03 1.88666E-03-1.27444E+01
 -1        45-4.18029E+01 2.40005E+02 8.43866E+02-1.21437E-02 8.26974E-03-8.80794E+01
 -1        46 4.41275E+02 9.40531E+02 2.72138E+03 2.32964E-02 8.54381E-04-5.55836E+01
 -1        47-4.18043E+01 2.40024E+02 8.43927E+02-1.21437E-02 8.26974E-03-8.80224E+01
 -1        48 4.42021E+02 9.40852E+02 2.72171E+03 2.32965E-02 8.54388E-04-5.55386E+01
 -1        49-3.37536E+01 2.34558E+02 8.17942E+02-1.38244E-02 1.13494E-02-1.23818E+02
 -1        50 3.60496E+02 7.89454E+02 2.29100E+03 2.67582E-02 2.72710E-03-8.92251E+01
 -1        51-3.37756E+01 2.34542E+02 8.17912E+02-1.38244E-02 1.13494E-02-1.23870E+02
 -1        52 3.61285E+02 7.89759E+02 2.29123E+03 2.67583E-02 2.72709E-03-8.92695E+01
 -1        53-2.09840E+01 2.26719E+02 7.79139E+02-2.63180E-02 5.69402E-03-1.30739E+02
 -1        54 2.74733E+02 6.19479E+02 1.80292E+03 2.60552E-02-1.21796E-02-9.89142E+01
 -1        55-2.09029E+01 2.26725E+02 7.79077E+02-2.63180E-02 5.69403E-03-1.30820E+02
 -1        56 2.75746E+02 6.19865E+02 1.80319E+03 2.60553E-02-1.21797E-02-9.90155E+01
 -1        57-1.27825E+01 2.14508E+02 7.30188E+02-1.62410E-02 2.77459E-05-1.19093E+02
 -1        58 1.87082E+02 4.55995E+02 1.34023E+03 2.87885E-02-1.57548E-02-9.19473E+01
 -1        59-1.27760E+01 2.14517E+02 7.30209E+02-1.62410E-02 2.77627E-05-1.19207E+02
 -1        60 1.88113E+02 4.56487E+02 1.34085E+03 2.87887E-02-1.57548E-02-9.21212E+01
 -1        61-3.67821E+00 1.98367E+02 6.66960E+02-3.33848E-02 7.82204E-03-9.17601E+01
 -1        62 1.16045E+02 3.12846E+02 9.30474E+02-2.37484E-04 7.51976E-03-6.69280E+01
 -1        63-3.87359E+00 1.98269E+02 6.66828E+02-3.33847E-02 7.82203E-03-9.17427E+01
 -1        64 1.16816E+02 3.13221E+02 9.30955E+02-2.37509E-04 7.51977E-03-6.68479E+01
 -1        65 2.14776E+01 1.86631E+02 6.02284E+02-2.80703E-02-5.62907E-03-6.07049E+01
 -1        66 8.59350E+01 2.06014E+02 6.02358E+02 5.60221E-02 1.62884E-03-3.93922E+01
 -1        67 2.17667E+01 1.86728E+02 6.02319E+02-2.80704E-02-5.62909E-03-6.05761E+01
 -1        68 8.75577E+01 2.06630E+02 6.02786E+02 5.60225E-02 1.62887E-03-3.92708E+01
 -1        69 2.55418E+01 1.64316E+02 5.23456E+02-2.36964E-02-2.65997E-03-3.12901E+01
 -1        70 7.20817E+01 1.37860E+02 3.88081E+02 2.51416E-02-2.36741E-02-2.14269E+01
 -1        71 2.54843E+01 1.64346E+02 5.23615E+02-2.36964E-02-2.65996E-03-3.13584E+01
 -1        72 7.33533E+01 1.38546E+02 3.89096E+02 2.51417E-02-2.36742E-02-2.16223E+01
 -1        73 3.45335E+01 1.40385E+02 4.34235E+02-2.43295E-02 1.57679E-02-2.61850E-01
 -1        74 2.57700E+01 8.36609E+01 2.53415E+02 3.28264E-02 5.65215E-02 3.60825E+01
 -1        75 3.44293E+01 1.40310E+02 4.34091E+02-2.43295E-02 1.57679E-02-9.48168E-02
 -1        76 2.68264E+01 8.40320E+01 2.53596E+02 3.28266E-02 5.65215E-02 3.63300E+01
 -1        77 5.04594E+00 8.11242E+01 2.65613E+02-7.92400E-02-1.43186E-02 4.31842E+00
 -1        78 2.79255E+02 2.27514E+02 4.80083E+02 2.61031E-02-5.55824E-02-6.41203E+01
 -1        79 4.45634E+00 8.08401E+01 2.65253E+02-7.92399E-02-1.43187E-02 4.63023E+00
 -1        80 2.81609E+02 2.28603E+02 4.81363E+02 2.61031E-02-5.55825E-02-6.47596E+01
 -1        81 6.60038E+01 7.49439E+01 1.84650E+02 1.45521E-01 3.51526E-03 4.83596E+01
 -1        82-3.02279E+02 2.67490E+01 3.92541E+02-9.69130E-02 8.80386E-02-5.08681E+01
 -1        83 6.65025E+01 7.52436E+01 1.85165E+02 1.45521E-01 3.51596E-03 5.00379E+01
 -1        84-3.06062E+02 2.58644E+01 3.93385E+02-9.69116E-02 8.80391E-02-5.11043E+01
 -1        85 2.86670E+03 2.82760E+03 6.73376E+03 5.28604E-05 4.70798E-05 1.92454E+03
 -1        86 6.63818E+02 1.73450E+03 5.21149E+03 2.41051E-02 9.26691E-03 6.36932E+02
 -1        87 2.86678E+03 2.82768E+03 6.73396E+03 5.28844E-05 4.70817E-05 1.92469E+03
 -1        88 6.62620E+02 1.73403E+03 5.21112E+03 2.41050E-02 9.26692E-03 6.36984E+02
 -1        89 7.64673E+02 1.40269E+03 3.96875E+03 2.09712E-02 1.60791E-02 3.74261E+02
 -1        90 7.64147E+02 1.40245E+03 3.96847E+03 2.09712E-02 1.60791E-02 3.74211E+02
 -1        91 3.54342E+02 8.41055E+02 2.47435E+03 1.64187E-02 2.58872E-03 3.73503E+02
 -1        92 3.53704E+02 8.40758E+02 2.47400E+03 1.64186E-02 2.58871E-03 3.73506E+02
 -1        93 8.12944E+01 3.98568E+02 1.25576E+03 5.23467E-03 7.09894E-03 2.97290E+02
 -1        94 8.06740E+01 3.98298E+02 1.25547E+03 5.23465E-03 7.09893E-03 2.97289E+02
 -1        95-1.71719E+02 2.88455E+01 2.69749E+02 1.80011E-02 5.46055E-04 2.26120E+02
 -1        96-1.72376E+02 2.85359E+01 2.69374E+02 1.80011E-02 5.46059E-04 2.26163E+02
 -1        97-3.66102E+02-2.51045E+02-4.69806E+02 1.93275E-02-3.74486E-03 1.59268E+02
 -1        98-3.66767E+02-2.51332E+02-4.70094E+02 1.93275E-02-3.74486E-03 1.59265E+02
 -1        99-5.10486E+02-4.55001E+02-1.00383E+03 1.15716E-02 4.22339E-04 1.03326E+02
 -1       100-5.11131E+02-4.55280E+02-1.00411E+03 1.15715E-02 4.22339E-04 1.03337E+02
 -1       101-6.01330E+02-5.79644E+02-1.32667E+03 2.80488E-02-4.65876E-03 4.60748E+01
 -1       102-6.02037E+02-5.79975E+02-1.32706E+03 2.80487E-02-4.65875E-03 4.60884E+01
 -1       103-6.30105E+02-6.13384E+02-1.40997E+03 1.14943E-02-1.01995E-02-8.29867E+00
 -1       104-6.30820E+02-6.13675E+02-1.41022E+03 1.14942E-02-1.01995E-02-8.32500E+00
 -1       105-6.02620E+02-5.69119E+02-1.29089E+03-3.30584E-03 2.28989E-03-4.38623E+01
 -1       106-6.03328E+02-5.69373E+02-1.29103E+03-3.30583E-03 2.28989E-03-4.38025E+01
 -1       107-5.34305E+02-4.69504E+02-1.02859E+03 2.65654E-02 9.37676E-03-7.29729E+01
 -1       108-5.35100E+02-4.69837E+02-1.02890E+03 2.65653E-02 9.37677E-03-7.28859E+01
 -1       109-4.35567E+02-3.27543E+02-6.55553E+02 2.76359E-02 5.88860E-03-9.76592E+01
 -1       110-4.36423E+02-3.27903E+02-6.55893E+02 2.76358E-02 5.88860E-03-9.76658E+01
 -1       111-3.21599E+02-1.70590E+02-2.47009E+02 1.33564E-02 1.27282E-02-1.02566E+02
 -1       112-3.22391E+02-1.70907E+02-2.47270E+02 1.33563E-02 1.27282E-02-1.02604E+02
 -1       113-2.19421E+02-3.34229E+01 1.08325E+02 2.90682E-02 1.51704E-02-9.47235E+01
 -1       114-2.20475E+02-3.39343E+01 1.07675E+02 2.90681E-02 1.51704E-02-9.48060E+01
 -1       115-1.27602E+02 7.99691E+01 3.95202E+02 1.60474E-02-1.02010E-02-7.30044E+01
 -1       116-1.28848E+02 7.93150E+01 3.94266E+02 1.60473E-02-1.02010E-02-7.29117E+01
 -1       117-3.42050E+01 1.76242E+02 6.23578E+02 2.40111E-02-3.15741E-02-4.80667E+01
 -1       118-3.52385E+01 1.75832E+02 6.23247E+02 2.40110E-02-3.15740E-02-4.78405E+01
 -1       119 6.59300E+00 2.18441E+02 7.23885E+02 3.97953E-02 2.74722E-03-3.98573E+01
 -1       120 5.15702E+00 2.17766E+02 7.23068E+02 3.97951E-02 2.74722E-03-3.98486E+01
 -1       121 5.22821E+01 2.06107E+02 6.36546E+02 3.79278E-02-5.49799E-02-9.51055E+00
 -1       122 5.10133E+01 2.05584E+02 6.36071E+02 3.79275E-02-5.49797E-02-8.97569E+00
 -1       123-1.39530E+02 6.33099E+01 3.51488E+02 7.67214E-02 1.06161E-02-1.12189E+02
 -1       124-1.42649E+02 6.20570E+01 3.50433E+02 7.67210E-02 1.06160E-02-1.12839E+02
 -1       125 7.14204E+02 4.00918E+02 6.25039E+02-1.29030E-01-2.19657E-02-3.02203E+02
 -1       126 7.19692E+02 4.03093E+02 6.26824E+02-1.29032E-01-2.19655E-02-3.03293E+02
 -3
    1PSTEP                        23           6           2          
  100CL  106 1.60000E-01         126                     1    6           1
 -4  TOSTRAIN    6    1
 -5  EXX         1    4    1    1
 -5  EYY         1    4    2    2
 -5  EZZ         1    4    3    3
 -5  EXY         1    4    1    2
 -5  EYZ         1    4    2    3
 -5  EZX         1    4    3    1
 -1         1-1.06349E-05-1.11589E-16-9.97418E-03 1.52020E-11-3.75931E-13 5.31722E-03
 -1         2-1.11249E-05-2.80643E-15 1.01038E-03 2.63724E-11-4.18126E-13 4.20917E-03
 -1         3-6.42312E-04 1.37462E-14 1.18332E-03-1.21294E-07 2.00775E-08 1.40399E-03
 -1         4 2.27109E-03 1.01373E-15-8.64687E-03 8.09689E-08 2.50518E-08 1.67240E-03
 -1         5-1.06357E-05-1.11589E-16-9.97388E-03 1.51691E-11-3.75931E-13 5.31771E-03
 -1         6-1.11262E-05-2.80643E-15 1.01063E-03 2.63728E-11-4.18126E-13 4.20844E-03
 -1         7-6.42291E-04 1.37462E-14 1.18354E-03-1.21294E-07 2.00775E-08 1.40394E-03
 -1         8 2.27352E-03 1.01373E-15-8.64669E-03 8.09691E-08 2.50519E-08 1.67263E-03
 -1         9-6.93886E-04-1.00462E-15 1.34828E-03-1.01038E-08 3.58962E-08 1.48616E-03
 -1        10 7.49017E-04 9.12947E-15-5.66243E-03 6.70231E-08 3.15943E-08 1.01117E-03
 -1        11-6.93886E-04-1.00462E-15 1.34836E-03-1.01038E-08 3.58962E-08 1.48634E-03
 -1        12 7.49942E-04 9.12947E-15-5.66213E-03 6.70231E-08 3.15943E-08 1.01115E-03
 -1        13-6.77926E-04 7.20208E-16 1.34843E-03-3.98551E-08 3.30779E-08 1.29535E-03
 -1        14 2.91998E-04 1.87017E-14-2.60714E-03 8.18238E-08 7.65421E-08 1.03647E-03
 -1        15-6.77753E-04 7.20208E-16 1.34831E-03-3.98551E-08 3.30780E-08 1.29534E-03
 -1        16 2.93458E-04 1.87017E-14-2.60719E-03 8.18240E-08 7.65421E-08 1.03669E-03
 -1        17-6.99519E-04 7.93280E-15 1.40117E-03-7.86747E-08 1.52416E-08 1.10233E-03
 -1        18-3.12943E-04 4.27486E-17 6.37202E-06 5.08633E-08 2.44524E-08 8.38221E-04
 -1        19-6.99311E-04 7.93280E-15 1.40097E-03-7.86747E-08 1.52415E-08 1.10235E-03
 -1        20-3.11388E-04 4.27486E-17 5.95003E-06 5.08633E-08 2.44524E-08 8.38248E-04
 -1        21-7.52394E-04-1.15601E-15 1.51098E-03-3.64844E-08-8.77779E-10 8.76350E-04
 -1        22-8.09965E-04 6.40576E-15 2.21018E-03 7.21101E-08 6.51175E-09 6.64611E-04
 -1        23-7.52313E-04-1.15601E-15 1.51085E-03-3.64844E-08-8.77787E-10 8.76476E-04
 -1        24-8.08662E-04 6.40576E-15 2.21001E-03 7.21102E-08 6.51177E-09 6.64736E-04
 -1        25-8.11067E-04-9.25768E-16 1.64535E-03-3.95545E-08-6.84879E-09 6.63715E-04
 -1        26-1.21728E-03 7.45032E-15 3.97391E-03 7.79767E-08-3.91407E-09 4.96051E-04
 -1        27-8.10979E-04-9.25768E-16 1.64529E-03-3.95545E-08-6.84878E-09 6.63660E-04
 -1        28-1.21587E-03 7.45032E-15 3.97374E-03 7.79768E-08-3.91408E-09 4.96017E-04
 -1        29-8.69559E-04 3.36591E-15 1.77908E-03-6.14970E-08-1.05824E-08 4.66955E-04
 -1        30-1.53762E-03 1.88798E-15 5.32001E-03 5.45222E-08-2.08432E-08 3.45209E-04
 -1        31-8.69458E-04 3.36591E-15 1.77906E-03-6.14970E-08-1.05824E-08 4.66974E-04
 -1        32-1.53623E-03 1.88798E-15 5.32002E-03 5.45223E-08-2.08432E-08 3.45189E-04
 -1        33-9.19086E-04-4.25004E-15 1.89092E-03-1.04974E-08-9.56157E-09 2.38626E-04
 -1        34-1.75488E-03 1.24904E-14 6.19128E-03 9.17626E-08-2.89778E-09 1.74336E-04
 -1        35-9.19084E-04-4.25004E-15 1.89098E-03-1.04974E-08-9.56157E-09 2.38611E-04
 -1        36-1.75365E-03 1.24904E-14 6.19155E-03 9.17628E-08-2.89779E-09 1.74319E-04
 -1        37-9.42649E-04 6.01747E-15 1.96030E-03-7.69854E-08 3.83773E-10 3.24668E-06
 -1        38-1.82491E-03-1.77488E-15 6.49700E-03 3.52818E-08 2.39640E-08-2.31325E-07
 -1        39-9.42665E-04 6.01747E-15 1.96043E-03-7.69854E-08 3.83828E-10 3.04612E-06
 -1        40-1.82357E-03-1.77488E-15 6.49706E-03 3.52819E-08 2.39640E-08-3.95378E-07
 -1        41-9.40265E-04 2.91583E-14 1.98179E-03-1.34070E-07 1.25622E-08-1.65025E-04
 -1        42-1.76885E-03-6.46734E-15 6.29861E-03-1.00398E-08 5.98423E-09-1.22022E-04
 -1        43-9.40261E-04 2.91583E-14 1.98194E-03-1.34070E-07 1.25621E-08-1.64917E-04
 -1        44-1.76736E-03-6.46734E-15 6.29848E-03-1.00399E-08 5.98422E-09-1.21940E-04
 -1        45-9.19457E-04-1.92975E-15 1.95868E-03-3.96278E-08 2.65922E-08-3.01833E-04
 -1        46-1.62639E-03 5.65362E-15 5.71637E-03 7.56997E-08 3.21699E-09-2.22170E-04
 -1        47-9.19520E-04-1.92975E-15 1.95882E-03-3.96278E-08 2.65922E-08-3.01650E-04
 -1        48-1.62501E-03 5.65362E-15 5.71639E-03 7.56998E-08 3.21703E-09-2.22020E-04
 -1        49-8.74747E-04 3.29139E-16 1.89098E-03-4.50115E-08 3.66685E-08-4.07412E-04
 -1        50-1.39673E-03 8.91213E-15 4.82815E-03 8.69477E-08 9.01325E-09-3.02807E-04
 -1        51-8.74765E-04 3.29139E-16 1.89093E-03-4.50115E-08 3.66685E-08-4.07581E-04
 -1        52-1.39514E-03 8.91213E-15 4.82790E-03 8.69479E-08 9.01324E-09-3.02947E-04
 -1        53-8.07721E-04 6.58858E-15 1.79051E-03-8.55436E-08 1.84316E-08-4.23033E-04
 -1        54-1.12264E-03 6.32314E-15 3.81378E-03 8.46663E-08-3.93986E-08-3.18997E-04
 -1        55-8.07474E-04 6.58858E-15 1.79029E-03-8.55436E-08 1.84316E-08-4.23299E-04
 -1        56-1.12060E-03 6.32314E-15 3.81342E-03 8.46665E-08-3.93986E-08-3.19325E-04
 -1        57-7.41496E-04-3.06770E-15 1.67165E-03-5.27984E-08 1.54183E-10-3.81666E-04
 -1        58-8.76081E-04 1.23497E-14 2.85590E-03 9.34581E-08-5.11603E-08-2.91202E-04
 -1        59-7.41503E-04-3.06770E-15 1.67169E-03-5.27984E-08 1.54196E-10-3.82036E-04
 -1        60-8.74326E-04 1.23497E-14 2.85628E-03 9.34583E-08-5.11603E-08-2.91766E-04
 -1        61-6.58924E-04 1.76729E-14 1.51920E-03-1.08453E-07 2.56215E-08-2.91920E-04
 -1        62-6.41093E-04-9.86305E-15 1.99869E-03-6.99986E-10 2.43724E-08-2.10352E-04
 -1        63-6.59241E-04 1.76729E-14 1.51909E-03-1.08453E-07 2.56216E-08-2.91862E-04
 -1        64-6.39800E-04-9.86305E-15 1.99903E-03-7.00025E-10 2.43724E-08-2.10094E-04
 -1        65-5.38275E-04-7.27398E-16 1.34767E-03-9.12914E-08-1.80396E-08-1.91848E-04
 -1        66-3.91034E-04 3.42367E-14 1.28464E-03 1.82077E-07 4.85422E-09-1.23483E-04
 -1        67-5.37649E-04-7.27398E-16 1.34747E-03-9.12915E-08-1.80396E-08-1.91431E-04
 -1        68-3.87753E-04 3.42367E-14 1.28403E-03 1.82078E-07 4.85429E-09-1.23099E-04
 -1        69-4.52007E-04 1.12177E-15 1.16458E-03-7.70393E-08-8.46334E-09-9.78403E-05
 -1        70-2.14198E-04 2.72986E-15 8.11952E-04 8.15233E-08-7.70193E-08-6.72435E-05
 -1        71-4.52294E-04 1.12177E-15 1.16500E-03-7.70393E-08-8.46334E-09-9.80603E-05
 -1        72-2.12295E-04 2.72986E-15 8.13023E-04 8.15234E-08-7.70194E-08-6.78801E-05
 -1        73-3.44281E-04-8.64766E-15 9.52982E-04-7.89891E-08 5.12968E-08 1.29443E-06
 -1        74-1.88034E-04 4.29666E-14 5.50669E-04 1.06949E-07 1.83362E-07 1.18357E-04
 -1        75-3.44377E-04-8.64766E-15 9.52756E-04-7.89891E-08 5.12968E-08 1.83871E-06
 -1        76-1.85803E-04 4.29666E-14 5.50047E-04 1.06949E-07 1.83362E-07 1.19159E-04
 -1        77-2.47074E-04 2.57135E-14 5.98736E-04-2.57579E-07-4.61473E-08 1.48768E-05
 -1        78 1.67246E-04-7.83310E-15 8.19549E-04 8.45478E-08-1.80579E-07-2.06765E-04
 -1        79-2.48063E-04 2.57135E-14 5.98492E-04-2.57579E-07-4.61477E-08 1.58879E-05
 -1        80 1.71351E-04-7.83310E-15 8.20168E-04 8.45477E-08-1.80579E-07-2.08838E-04
 -1        81-3.01182E-05 1.14045E-13 3.55635E-04 4.72876E-07 1.07518E-08 1.58177E-04
 -1        82-1.07147E-03 8.43258E-14 1.18703E-03-3.14573E-07 2.86391E-07-1.60712E-04
 -1        83-2.94876E-05 1.14045E-13 3.56317E-04 4.72876E-07 1.07537E-08 1.63632E-04
 -1        84-1.08092E-03 8.43258E-14 1.19263E-03-3.14570E-07 2.86392E-07-1.61448E-04
 -1        85-1.16150E-05-1.18923E-16 1.23916E-02 1.02631E-10-4.12341E-13 6.01764E-03
 -1        86-3.55572E-03 9.69947E-16 1.11118E-02 7.79885E-08 3.05105E-08 1.85489E-03
 -1        87-1.16166E-05-1.18923E-16 1.23919E-02 1.02663E-10-4.12341E-13 6.01811E-03
 -1        88-3.55811E-03 9.69947E-16 1.11121E-02 7.79883E-08 3.05105E-08 1.85503E-03
 -1        89-2.13679E-03 1.24657E-14 8.24598E-03 6.69780E-08 5.30450E-08 9.90015E-04
 -1        90-2.13771E-03 1.24657E-14 8.24585E-03 6.69780E-08 5.30450E-08 9.89840E-04
 -1        91-1.64785E-03 2.25012E-15 5.30453E-03 5.31313E-08 9.67119E-09 1.02605E-03
 -1        92-1.64897E-03 2.25012E-15 5.30435E-03 5.31312E-08 9.67117E-09 1.02604E-03
 -1        93-1.08609E-03-2.00161E-15 2.81687E-03 1.63415E-08 2.34572E-08 8.52662E-04
 -1        94-1.08723E-03-2.00161E-15 2.81683E-03 1.63414E-08 2.34572E-08 8.52629E-04
 -1        95-6.94824E-04 3.45682E-15 8.20339E-04 5.84598E-08 3.40215E-09 6.91683E-04
 -1        96-6.95964E-04 3.45682E-15 8.20136E-04 5.84598E-08 3.40217E-09 6.91798E-04
 -1        97-4.04858E-04 4.52393E-15-6.82411E-04 6.31633E-08-1.05321E-08 5.26126E-04
 -1        98-4.06091E-04 4.52393E-15-6.82416E-04 6.31632E-08-1.05321E-08 5.26086E-04
 -1        99-2.01493E-04-1.14147E-15-1.76824E-03 3.75787E-08 2.25334E-09 3.73923E-04
 -1       100-2.02682E-04-1.14147E-15-1.76825E-03 3.75786E-08 2.25334E-09 3.73931E-04
 -1       101-8.32961E-05 1.26134E-14-2.42526E-03 9.15232E-08-1.34364E-08 1.95829E-04
 -1       102-8.45204E-05 1.26134E-14-2.42547E-03 9.15231E-08-1.34364E-08 1.95854E-04
 -1       103-6.03856E-05-9.02509E-16-2.59401E-03 3.78463E-08-3.27287E-08 1.03237E-05
 -1       104-6.17644E-05-9.02509E-16-2.59388E-03 3.78462E-08-3.27287E-08 1.02153E-05
 -1       105-1.11684E-04-7.03536E-15-2.35152E-03-1.08768E-08 7.38040E-09-1.20365E-04
 -1       106-1.13164E-04-7.03536E-15-2.35113E-03-1.08768E-08 7.38039E-09-1.20189E-04
 -1       107-2.12522E-04 9.86468E-15-1.82015E-03 8.62336E-08 3.11063E-08-2.28195E-04
 -1       108-2.14033E-04 9.86468E-15-1.82008E-03 8.62335E-08 3.11063E-08-2.27920E-04
 -1       109-3.52767E-04 1.03462E-14-1.06589E-03 8.98427E-08 1.94031E-08-3.16021E-04
 -1       110-3.54385E-04 1.03462E-14-1.06583E-03 8.98426E-08 1.94031E-08-3.16047E-04
 -1       111-4.92797E-04 6.65358E-16-2.46453E-04 4.34503E-08 4.13790E-08-3.33367E-04
 -1       112-4.94345E-04 6.65358E-16-2.46273E-04 4.34502E-08 4.13790E-08-3.33491E-04
 -1       113-6.06911E-04 1.31842E-14 4.61929E-04 9.46277E-08 4.91274E-08-3.05744E-04
 -1       114-6.08680E-04 1.31842E-14 4.61482E-04 9.46275E-08 4.91274E-08-3.06012E-04
 -1       115-6.76756E-04-4.11210E-15 1.02341E-03 5.20789E-08-3.32327E-08-2.32578E-04
 -1       116-6.78683E-04-4.11210E-15 1.02250E-03 5.20788E-08-3.32327E-08-2.32276E-04
 -1       117-6.85516E-04 1.81274E-14 1.44983E-03 7.77690E-08-1.02629E-07-1.50215E-04
 -1       118-6.87544E-04 1.81274E-14 1.45008E-03 7.77688E-08-1.02629E-07-1.49475E-04
 -1       119-6.89816E-04 1.30401E-14 1.63725E-03 1.29391E-07 8.62777E-09-1.23910E-04
 -1       120-6.92293E-04 1.30401E-14 1.63679E-03 1.29391E-07 8.62780E-09-1.23878E-04
 -1       121-5.00527E-04 5.36293E-14 1.39448E-03 1.22982E-07-1.78584E-07-2.75651E-05
 -1       122-5.02951E-04 5.36293E-14 1.39463E-03 1.22981E-07-1.78584E-07-2.58258E-05
 -1       123-6.61395E-04 1.28033E-14 9.35601E-04 2.49406E-07 3.41578E-08-3.62197E-04
 -1       124-6.67478E-04 1.28033E-14 9.36249E-04 2.49406E-07 3.41576E-08-3.64302E-04
 -1       125 1.01124E-03 5.12592E-14 7.28605E-04-4.19050E-07-7.08676E-08-9.78816E-04
 -1       126 1.02194E-03 5.12592E-14 7.27346E-04-4.19052E-07-7.08667E-08-9.82344E-04
 -3
    1PSTEP                        24           6           2          
  100CL  106 1.60000E-01         126                     1    6           1
 -4  ERROR       1    1
 -5  STR(%)      1    1    0    0
 -1         1 7.13141E+01
 -1         2 7.13141E+01
 -1         3 7.42096E+01
 -1         4 7.42096E+01
 -1         5 7.13141E+01
 -1         6 7.13141E+01
 -1         7 7.42096E+01
 -1         8 7.42096E+01
 -1         9 7.42096E+01
 -1        10 7.42096E+01
 -1        11 7.42096E+01
 -1        12 7.42096E+01
 -1        13 7.95155E+01
 -1        14 7.95155E+01
 -1        15 7.95155E+01
 -1        16 7.95155E+01
 -1        17 7.95155E+01
 -1        18 7.95155E+01
 -1        19 7.95155E+01
 -1        20 7.95155E+01
 -1        21 6.47677E+01
 -1        22 2.18563E+01
 -1        23 6.47677E+01
 -1        24 2.18563E+01
 -1        25 1.05458E+02
 -1        26 3.38252E+01
 -1        27 1.05458E+02
 -1        28 3.38252E+01
 -1        29 1.05458E+02
 -1        30 3.76733E+01
 -1        31 1.05458E+02
 -1        32 3.76733E+01
 -1        33 8.86576E+01
 -1        34 3.83525E+01
 -1        35 8.86576E+01
 -1        36 3.83525E+01
 -1        37 8.72110E+01
 -1        38 3.83525E+01
 -1        39 8.72110E+01
 -1        40 3.83525E+01
 -1        41 8.98400E+01
 -1        42 3.79346E+01
 -1        43 8.98400E+01
 -1        44 3.79346E+01
 -1        45 1.05901E+02
 -1        46 3.65737E+01
 -1        47 1.05901E+02
 -1        48 3.65737E+01
 -1        49 1.05901E+02
 -1        50 3.37881E+01
 -1        51 1.05901E+02
 -1        52 3.37881E+01
 -1        53 9.23710E+01
 -1        54 2.86680E+01
 -1        55 9.23710E+01
 -1        56 2.86680E+01
 -1        57 6.02930E+01
 -1        58 2.13672E+01
 -1        59 6.02930E+01
 -1        60 2.13672E+01
 -1        61 2.93566E+01
 -1        62 1.18508E+01
 -1        63 2.93566E+01
 -1        64 1.18508E+01
 -1        65 9.20166E+00
 -1        66 9.20166E+00
 -1        67 9.20166E+00
 -1        68 9.20166E+00
 -1        69 1.73839E+01
 -1        70 1.53249E+01
 -1        71 1.73839E+01
 -1        72 1.53249E+01
 -1        73 1.90926E+01
 -1        74 1.90926E+01
 -1        75 1.90926E+01
 -1        76 1.90926E+01
 -1        77 5.98114E+01
 -1        78 5.98114E+01
 -1        79 5.98114E+01
 -1        80 5.98114E+01
 -1        81 5.98114E+01
 -1        82 5.98114E+01
 -1        83 5.98114E+01
 -1        84 5.98114E+01
 -1        85 5.92036E+01
 -1        86 5.92036E+01
 -1        87 5.92036E+01
 -1        88 5.92036E+01
 -1        89 5.09420E+01
 -1        90 5.09420E+01
 -1        91 4.61991E+01
 -1        92 4.61991E+01
 -1        93 3.25374E+01
 -1        94 3.25374E+01
 -1        95 6.47677E+01
 -1        96 6.47677E+01
 -1        97 1.05458E+02
 -1        98 1.05458E+02
 -1        99 1.05458E+02
 -1       100 1.05458E+02
 -1       101 8.86576E+01
 -1       102 8.86576E+01
 -1       103 8.72110E+01
 -1       104 8.72110E+01
 -1       105 8.98400E+01
 -1       106 8.98400E+01
 -1       107 1.05901E+02
 -1       108 1.05901E+02
 -1       109 1.05901E+02
 -1       110 1.05901E+02
 -1       111 9.23710E+01
 -1       112 9.23710E+01
 -1       113 6.02930E+01
 -1       114 6.02930E+01
 -1       115 2.93566E+01
 -1       116 2.93566E+01
 -1       117 6.26334E+00
 -1       118 6.26334E+00
 -1       119 1.73839E+01
 -1       120 1.73839E+01
 -1       121 1.73839E+01
 -1       122 1.73839E+01
 -1       123 5.68898E+01
 -1       124 5.68898E+01
 -1       125 5.68898E+01
 -1       126 5.68898E+01
 -3
    1PSTEP                        25           7           2          
  100CL  107 1.70000E-01         126                     1    7           1
 -4  DISP        4    1
 -5  D1          1    2    1    0
 -5  D2          1    2    2    0
 -5  D3          1    2    3    0
 -5  ALL         1    2    0    0    1ALL
 -1         1 0.00000E+00 0.00000E+00 0.00000E+00
 -1         2 0.00000E+00 0.00000E+00 0.00000E+00
 -1         3 4.52051E-04 0.00000E+00 5.38894E-05
 -1         4 5.79828E-04 0.00000E+00-5.53845E-04
 -1         5 0.00000E+00 0.00000E+00 0.00000E+00
 -1         6 0.00000E+00 0.00000E+00 0.00000E+00
 -1         7 4.52140E-04 0.00000E+00 5.38938E-05
 -1         8 5.79804E-04 0.00000E+00-5.53851E-04
 -1         9 1.51959E-03 0.00000E+00 1.10525E-04
 -1        10 1.56151E-03 0.00000E+00-9.72399E-04
 -1        11 1.51963E-03 0.00000E+00 1.10523E-04
 -1        12 1.56153E-03 0.00000E+00-9.72392E-04
 -1        13 2.93712E-03 0.00000E+00 1.56459E-04
 -1        14 2.94771E-03 0.00000E+00-1.22288E-03
 -1        15 2.93714E-03 0.00000E+00 1.56460E-04
 -1        16 2.94769E-03 0.00000E+00-1.22288E-03
 -1        17 4.55840E-03 0.00000E+00 1.96184E-04
 -1        18 4.53365E-03 0.00000E+00-1.32838E-03
 -1        19 4.55845E-03 0.00000E+00 1.96188E-04
 -1        20 4.53366E-03 0.00000E+00-1.32838E-03
 -1        21 6.22414E-03 0.00000E+00 2.36065E-04
 -1        22 6.17455E-03 0.00000E+00-1.30940E-03
 -1        23 6.22416E-03 0.00000E+00 2.36068E-04
 -1        24 6.17454E-03 0.00000E+00-1.30939E-03
 -1        25 7.84100E-03 0.00000E+00 2.83043E-04
 -1        26 7.77180E-03 0.00000E+00-1.18876E-03
 -1        27 7.84105E-03 0.00000E+00 2.83046E-04
 -1        28 7.77179E-03 0.00000E+00-1.18875E-03
 -1        29 9.32958E-03 0.00000E+00 3.42251E-04
 -1        30 9.24549E-03 0.00000E+00-9.77919E-04
 -1        31 9.32963E-03 0.00000E+00 3.42255E-04
 -1        32 9.24550E-03 0.00000E+00-9.77900E-04
 -1        33 1.06087E-02 0.00000E+00 4.15922E-04
 -1        34 1.05157E-02 0.00000E+00-6.91984E-04
 -1        35 1.06087E-02 0.00000E+00 4.15922E-04
 -1        36 1.05156E-02 0.00000E+00-6.91974E-04
 -1        37 1.16229E-02 0.00000E+00 5.03719E-04
 -1        38 1.15274E-02 0.00000E+00-3.57910E-04
 -1        39 1.16230E-02 0.00000E+00 5.03709E-04
 -1        40 1.15274E-02 0.00000E+00-3.57917E-04
 -1        41 1.23554E-02 0.00000E+00 6.02793E-04
 -1        42 1.22631E-02 0.00000E+00-7.23243E-06
 -1        43 1.23555E-02 0.00000E+00 6.02781E-04
 -1        44 1.22631E-02 0.00000E+00-7.23669E-06
 -1        45 1.28193E-02 0.00000E+00 7.08110E-04
 -1        46 1.27350E-02 0.00000E+00 3.32146E-04
 -1        47 1.28193E-02 0.00000E+00 7.08101E-04
 -1        48 1.27350E-02 0.00000E+00 3.32139E-04
 -1        49 1.30460E-02 0.00000E+00 8.14206E-04
 -1        50 1.29735E-02 0.00000E+00 6.38147E-04
 -1        51 1.30460E-02 0.00000E+00 8.14198E-04
 -1        52 1.29735E-02 0.00000E+00 6.38137E-04
 -1        53 1.30839E-02 0.00000E+00 9.17233E-04
 -1        54 1.30251E-02 0.00000E+00 8.94218E-04
 -1        55 1.30840E-02 0.00000E+00 9.17235E-04
 -1        56 1.30251E-02 0.00000E+00 8.94248E-04
 -1        57 1.29970E-02 0.00000E+00 1.01425E-03
 -1        58 1.29525E-02 0.00000E+00 1.09199E-03
 -1        59 1.29970E-02 0.00000E+00 1.01427E-03
 -1        60 1.29524E-02 0.00000E+00 1.09206E-03
 -1        61 1.28490E-02 0.00000E+00 1.10240E-03
 -1        62 1.28180E-02 0.00000E+00 1.23725E-03
 -1        63 1.28491E-02 0.00000E+00 1.10239E-03
 -1        64 1.28180E-02 0.00000E+00 1.23728E-03
 -1        65 1.26637E-02 0.00000E+00 1.18159E-03
 -1        66 1.26427E-02 0.00000E+00 1.34046E-03
 -1        67 1.26638E-02 0.00000E+00 1.18158E-03
 -1        68 1.26426E-02 0.00000E+00 1.34045E-03
 -1        69 1.24704E-02 0.00000E+00 1.25011E-03
 -1        70 1.24609E-02 0.00000E+00 1.40408E-03
 -1        71 1.24704E-02 0.00000E+00 1.25011E-03
 -1        72 1.24607E-02 0.00000E+00 1.40411E-03
 -1        73 1.23207E-02 0.00000E+00 1.30393E-03
 -1        74 1.23126E-02 0.00000E+00 1.44342E-03
 -1        75 1.23208E-02 0.00000E+00 1.30391E-03
 -1        76 1.23125E-02 0.00000E+00 1.44334E-03
 -1        77 1.21943E-02 0.00000E+00 1.34741E-03
 -1        78 1.22099E-02 0.00000E+00 1.47221E-03
 -1        79 1.21944E-02 0.00000E+00 1.34742E-03
 -1        80 1.22097E-02 0.00000E+00 1.47234E-03
 -1        81 1.20921E-02 0.00000E+00 1.36482E-03
 -1        82 1.20410E-02 0.00000E+00 1.51693E-03
 -1        83 1.20919E-02 0.00000E+00 1.36481E-03
 -1        84 1.20412E-02 0.00000E+00 1.51681E-03
 -1        85 0.00000E+00 0.00000E+00 0.00000E+00
 -1        86 6.42100E-04 0.00000E+00 6.64019E-04
 -1        87 0.00000E+00 0.00000E+00 0.00000E+00
 -1        88 6.42038E-04 0.00000E+00 6.64008E-04
 -1        89 1.63659E-03 0.00000E+00 1.18702E-03
 -1        90 1.63655E-03 0.00000E+00 1.18700E-03
 -1        91 3.03460E-03 0.00000E+00 1.53063E-03
 -1        92 3.03453E-03 0.00000E+00 1.53063E-03
 -1        93 4.62776E-03 0.00000E+00 1.71933E-03
 -1        94 4.62771E-03 0.00000E+00 1.71933E-03
 -1        95 6.27259E-03 0.00000E+00 1.78405E-03
 -1        96 6.27252E-03 0.00000E+00 1.78406E-03
 -1        97 7.87204E-03 0.00000E+00 1.75995E-03
 -1        98 7.87198E-03 0.00000E+00 1.75995E-03
 -1        99 9.34491E-03 0.00000E+00 1.66840E-03
 -1       100 9.34486E-03 0.00000E+00 1.66840E-03
 -1       101 1.06119E-02 0.00000E+00 1.52963E-03
 -1       102 1.06118E-02 0.00000E+00 1.52963E-03
 -1       103 1.16202E-02 0.00000E+00 1.36998E-03
 -1       104 1.16201E-02 0.00000E+00 1.36998E-03
 -1       105 1.23524E-02 0.00000E+00 1.21523E-03
 -1       106 1.23524E-02 0.00000E+00 1.21522E-03
 -1       107 1.28198E-02 0.00000E+00 1.08399E-03
 -1       108 1.28198E-02 0.00000E+00 1.08400E-03
 -1       109 1.30529E-02 0.00000E+00 9.88575E-04
 -1       110 1.30528E-02 0.00000E+00 9.88599E-04
 -1       111 1.30993E-02 0.00000E+00 9.37303E-04
 -1       112 1.30992E-02 0.00000E+00 9.37314E-04
 -1       113 1.30197E-02 0.00000E+00 9.31862E-04
 -1       114 1.30196E-02 0.00000E+00 9.31845E-04
 -1       115 1.28756E-02 0.00000E+00 9.62960E-04
 -1       116 1.28756E-02 0.00000E+00 9.62952E-04
 -1       117 1.26933E-02 0.00000E+00 1.01930E-03
 -1       118 1.26933E-02 0.00000E+00 1.01934E-03
 -1       119 1.25010E-02 0.00000E+00 1.09444E-03
 -1       120 1.25010E-02 0.00000E+00 1.09444E-03
 -1       121 1.23397E-02 0.00000E+00 1.17243E-03
 -1       122 1.23397E-02 0.00000E+00 1.17248E-03
 -1       123 1.22256E-02 0.00000E+00 1.22900E-03
 -1       124 1.22255E-02 0.00000E+00 1.22889E-03
 -1       125 1.20361E-02 0.00000E+00 1.26264E-03
 -1       126 1.20365E-02 0.00000E+00 1.26258E-03
 -3
    1PSTEP                        26           7           2          
  100CL  107 1.70000E-01         126                     1    7           1
 -4  STRESS      6    1
 -5  SXX         1    4    1    1
 -5  SYY         1    4    2    2
 -5  SZZ         1    4    3    3
 -5  SXY         1    4    1    2
 -5  SYZ         1    4    2    3
 -5  SZX         1    4    3    1
 -1         1-2.51889E+03-2.55475E+03-5.85994E+03 6.56527E-06-2.36146E-05 1.72116E+03
 -1         2 2.77214E+02 2.57992E+02 5.72549E+02 1.59954E-05 9.16004E-05 1.39487E+03
 -1         3 2.04955E+01 1.58387E+02 5.05193E+02 4.51860E-02 2.43058E-03 4.68199E+02
 -1         4-7.77978E+02-1.60702E+03-4.51296E+03-1.20277E-02-2.82083E-03 4.99751E+02
 -1         5-2.51892E+03-2.55478E+03-5.86000E+03 6.55404E-06-2.36155E-05 1.72109E+03
 -1         6 2.77251E+02 2.58016E+02 5.72606E+02 1.59884E-05 9.15999E-05 1.39514E+03
 -1         7 2.06833E+01 1.58472E+02 5.05270E+02 4.51860E-02 2.43059E-03 4.68269E+02
 -1         8-7.79171E+02-1.60753E+03-4.51343E+03-1.20277E-02-2.82083E-03 4.99753E+02
 -1         9 5.96852E+01 1.89643E+02 5.69064E+02 2.02208E-02-9.81164E-04 5.08086E+02
 -1        10-8.83652E+02-1.23147E+03-3.18725E+03 1.04573E-02 3.69050E-03 2.81862E+02
 -1        11 5.99848E+01 1.89769E+02 5.69180E+02 2.02208E-02-9.81169E-04 5.08025E+02
 -1        12-8.83869E+02-1.23157E+03-3.18736E+03 1.04573E-02 3.69050E-03 2.81890E+02
 -1        13 6.94293E+01 1.91536E+02 5.70359E+02 9.09667E-03 9.89657E-04 4.47379E+02
 -1        14-3.80422E+02-5.82727E+02-1.55283E+03-1.23849E-02-4.49426E-03 3.10365E+02
 -1        15 6.97144E+01 1.91669E+02 5.70511E+02 9.09668E-03 9.89655E-04 4.47371E+02
 -1        16-3.80876E+02-5.82923E+02-1.55303E+03-1.23849E-02-4.49426E-03 3.10320E+02
 -1        17 7.61796E+01 1.98362E+02 5.87466E+02 2.35431E-02 2.24809E-03 3.77370E+02
 -1        18-7.82853E+01-8.65767E+01-2.08467E+02 4.86806E-03 3.10995E-03 2.71331E+02
 -1        19 7.65170E+01 1.98508E+02 5.87615E+02 2.35432E-02 2.24809E-03 3.77386E+02
 -1        20-7.86408E+01-8.67097E+01-2.08555E+02 4.86805E-03 3.10995E-03 2.71366E+02
 -1        21 7.38747E+01 2.08967E+02 6.25237E+02 1.30080E-02 1.48895E-03 3.00707E+02
 -1        22 1.81026E+02 3.24336E+02 9.04870E+02-3.83075E-03 3.11223E-03 2.38792E+02
 -1        23 7.42181E+01 2.09113E+02 6.25379E+02 1.30080E-02 1.48895E-03 3.00695E+02
 -1        24 1.80681E+02 3.24194E+02 9.04741E+02-3.83074E-03 3.11223E-03 2.38786E+02
 -1        25 6.65610E+01 2.25505E+02 6.87275E+02 2.06468E-02 1.59860E-03 2.51266E+02
 -1        26 3.74249E+02 6.54049E+02 1.81936E+03-1.32800E-03 5.38205E-03 2.18917E+02
 -1        27 6.68514E+01 2.25631E+02 6.87406E+02 2.06468E-02 1.59861E-03 2.51310E+02
 -1        28 3.73822E+02 6.53883E+02 1.81923E+03-1.32800E-03 5.38204E-03 2.18970E+02
 -1        29 6.08280E+01 2.46911E+02 7.63921E+02 2.51461E-02 2.43476E-03 1.96794E+02
 -1        30 5.25690E+02 9.25508E+02 2.58435E+03 4.67098E-03 1.01155E-02 1.88297E+02
 -1        31 6.11124E+01 2.47027E+02 7.64025E+02 2.51461E-02 2.43476E-03 1.96794E+02
 -1        32 5.25258E+02 9.25322E+02 2.58416E+03 4.67097E-03 1.01155E-02 1.88320E+02
 -1        33 5.63351E+01 2.68881E+02 8.41317E+02 7.73421E-03-1.37467E-04 1.19503E+02
 -1        34 6.28238E+02 1.11822E+03 3.13480E+03-9.88685E-03 5.26063E-03 1.30788E+02
 -1        35 5.66298E+01 2.68987E+02 8.41376E+02 7.73423E-03-1.37467E-04 1.19493E+02
 -1        36 6.27806E+02 1.11800E+03 3.13449E+03-9.88683E-03 5.26063E-03 1.30785E+02
 -1        37 5.20155E+01 2.87624E+02 9.08065E+02 1.56585E-02-5.13650E-03 3.63825E+01
 -1        38 6.70556E+02 1.20895E+03 3.40073E+03-7.26551E-03-3.38181E-03 6.12431E+01
 -1        39 5.22613E+01 2.87713E+02 9.08117E+02 1.56585E-02-5.13650E-03 3.64176E+01
 -1        40 6.70046E+02 1.20871E+03 3.40045E+03-7.26550E-03-3.38181E-03 6.12717E+01
 -1        41 5.00703E+01 3.00137E+02 9.52051E+02 2.53807E-02-6.27540E-03-3.49827E+01
 -1        42 6.57436E+02 1.20068E+03 3.38598E+03-4.71470E-03-2.22065E-03-2.72804E+00
 -1        43 5.02391E+01 3.00210E+02 9.52130E+02 2.53807E-02-6.27540E-03-3.50017E+01
 -1        44 6.56808E+02 1.20041E+03 3.38571E+03-4.71469E-03-2.22065E-03-2.74392E+00
 -1        45 5.35308E+01 3.04898E+02 9.65010E+02 1.06737E-02-4.26963E-03-9.13355E+01
 -1        46 6.04626E+02 1.11321E+03 3.14189E+03-2.13040E-02-3.37180E-03-5.52071E+01
 -1        47 5.36592E+01 3.04958E+02 9.65085E+02 1.06737E-02-4.26963E-03-9.13805E+01
 -1        48 6.03944E+02 1.11291E+03 3.14157E+03-2.13039E-02-3.37179E-03-5.52504E+01
 -1        49 6.05594E+01 3.02150E+02 9.49312E+02 1.64033E-02-3.89926E-03-1.31145E+02
 -1        50 5.21680E+02 9.65074E+02 2.72264E+03-2.12304E-02-5.12754E-03-9.27663E+01
 -1        51 6.06829E+01 3.02216E+02 9.49411E+02 1.64033E-02-3.89927E-03-1.31129E+02
 -1        52 5.20981E+02 9.64825E+02 2.72251E+03-2.12303E-02-5.12755E-03-9.27730E+01
 -1        53 6.35047E+01 2.90817E+02 9.08790E+02 3.32607E-02 1.07790E-03-1.42272E+02
 -1        54 4.15040E+02 7.76039E+02 2.18994E+03-2.15008E-02 1.60385E-02-1.03757E+02
 -1        55 6.34658E+01 2.90838E+02 9.08899E+02 3.32607E-02 1.07790E-03-1.42247E+02
 -1        56 4.14081E+02 7.75735E+02 2.18989E+03-2.15007E-02 1.60385E-02-1.03745E+02
 -1        57 6.80198E+01 2.73406E+02 8.46082E+02 1.48262E-02 1.09330E-02-1.16163E+02
 -1        58 3.14848E+02 5.87268E+02 1.65331E+03-4.69621E-02 3.63217E-02-8.11236E+01
 -1        59 6.78099E+01 2.73312E+02 8.45978E+02 1.48262E-02 1.09330E-02-1.16029E+02
 -1        60 3.13554E+02 5.86714E+02 1.65275E+03-4.69618E-02 3.63216E-02-8.09276E+01
 -1        61 8.00117E+01 2.55402E+02 7.73807E+02 3.27623E-02-4.78839E-04-9.20417E+01
 -1        62 2.42955E+02 4.32145E+02 1.20330E+03-6.73933E-03 1.57591E-02-6.34484E+01
 -1        63 8.00250E+01 2.55365E+02 7.73668E+02 3.27623E-02-4.78813E-04-9.19248E+01
 -1        64 2.41945E+02 4.31607E+02 1.20251E+03-6.73932E-03 1.57591E-02-6.33584E+01
 -1        65 7.33476E+01 2.26849E+02 6.84861E+02 3.38308E-02-5.90309E-03-8.97612E+01
 -1        66 1.62956E+02 2.90438E+02 8.07915E+02-4.94640E-02-4.96260E-03-6.19002E+01
 -1        67 7.29330E+01 2.26676E+02 6.84700E+02 3.38308E-02-5.90312E-03-8.98883E+01
 -1        68 1.61216E+02 2.89695E+02 8.07175E+02-4.94636E-02-4.96254E-03-6.21176E+01
 -1        69 7.06043E+01 1.92164E+02 5.71427E+02 1.80013E-02 1.55334E-03-5.22913E+01
 -1        70 1.39410E+02 1.96105E+02 5.15382E+02-8.03187E-02 1.64772E-02-3.48377E+01
 -1        71 6.99067E+01 1.91855E+02 5.71094E+02 1.80013E-02 1.55335E-03-5.21852E+01
 -1        72 1.37181E+02 1.95055E+02 5.14109E+02-8.03179E-02 1.64771E-02-3.47164E+01
 -1        73 8.15399E+01 1.63726E+02 4.65073E+02 5.16666E-02-9.94380E-03-8.38870E+00
 -1        74 7.18795E+01 1.21144E+02 3.32420E+02-3.83308E-02-4.21388E-02 4.28085E+01
 -1        75 8.09812E+01 1.63497E+02 4.64869E+02 5.16665E-02-9.94381E-03-8.44812E+00
 -1        76 7.02233E+01 1.20567E+02 3.32153E+02-3.83305E-02-4.21388E-02 4.25714E+01
 -1        77 5.79807E+01 1.05527E+02 2.94128E+02 6.33029E-02 5.84205E-03 2.22841E+01
 -1        78 3.40653E+02 2.43237E+02 4.70949E+02-9.45424E-02 6.83647E-02-3.39585E+01
 -1        79 5.78093E+01 1.05465E+02 2.94092E+02 6.33027E-02 5.84208E-03 2.21138E+01
 -1        80 3.37245E+02 2.41727E+02 4.69316E+02-9.45413E-02 6.83643E-02-3.31738E+01
 -1        81 1.09274E+02 9.28343E+01 2.01108E+02-1.30053E-01-6.02255E-03 7.67672E+01
 -1        82-3.38964E+02-2.67919E+01 2.50353E+02 9.78508E-02-6.25097E-02-5.23479E+01
 -1        83 1.08218E+02 9.23273E+01 2.00457E+02-1.30052E-01-6.02238E-03 7.55072E+01
 -1        84-3.35378E+02-2.59265E+01 2.49644E+02 9.78513E-02-6.25090E-02-5.15266E+01
 -1        85 3.10782E+03 3.06328E+03 7.30749E+03-6.18085E-05-6.53568E-05 2.06021E+03
 -1        86 7.92979E+02 1.91359E+03 5.69636E+03-3.16328E-02-6.14809E-03 6.86013E+02
 -1        87 3.10776E+03 3.06322E+03 7.30736E+03-6.17690E-05-6.53540E-05 2.06002E+03
 -1        88 7.94511E+02 1.91421E+03 5.69691E+03-3.16330E-02-6.14810E-03 6.86001E+02
 -1        89 9.53063E+02 1.57949E+03 4.38099E+03-1.98887E-02-1.29012E-02 4.12770E+02
 -1        90 9.53922E+02 1.57987E+03 4.38142E+03-1.98887E-02-1.29012E-02 4.12818E+02
 -1        91 5.09084E+02 9.68716E+02 2.75011E+03-3.81240E-02 1.05804E-03 4.09363E+02
 -1        92 5.10128E+02 9.69198E+02 2.75068E+03-3.81242E-02 1.05805E-03 4.09335E+02
 -1        93 2.28008E+02 4.92510E+02 1.42366E+03-2.71205E-02 9.68084E-04 3.15561E+02
 -1        94 2.29077E+02 4.92974E+02 1.42414E+03-2.71206E-02 9.68084E-04 3.15564E+02
 -1        95-3.34831E+01 1.02161E+02 3.76066E+02-3.69706E-02 3.41336E-03 2.35256E+02
 -1        96-3.24310E+01 1.02615E+02 3.76527E+02-3.69708E-02 3.41337E-03 2.35233E+02
 -1        97-2.45504E+02-2.00383E+02-4.21624E+02-2.82257E-02 1.94896E-03 1.79615E+02
 -1        98-2.44506E+02-1.99973E+02-4.21257E+02-2.82259E-02 1.94896E-03 1.79645E+02
 -1        99-4.11990E+02-4.34201E+02-1.03272E+03-2.35462E-02-3.74305E-03 1.26074E+02
 -1       100-4.10988E+02-4.33781E+02-1.03233E+03-2.35463E-02-3.74305E-03 1.26064E+02
 -1       101-5.25001E+02-5.86276E+02-1.42439E+03-4.14934E-02-1.87234E-03 6.32005E+01
 -1       102-5.23942E+02-5.85805E+02-1.42388E+03-4.14936E-02-1.87234E-03 6.31772E+01
 -1       103-5.77883E+02-6.43041E+02-1.55993E+03-3.28261E-02 2.13389E-03 3.60133E+00
 -1       104-5.76853E+02-6.42596E+02-1.55948E+03-3.28263E-02 2.13389E-03 3.61658E+00
 -1       105-5.70067E+02-6.12119E+02-1.46563E+03-2.02310E-02-1.06219E-03-4.41568E+01
 -1       106-5.69104E+02-6.11703E+02-1.46521E+03-2.02311E-02-1.06219E-03-4.41902E+01
 -1       107-5.08246E+02-5.13456E+02-1.20046E+03-3.25002E-02 2.53669E-03-8.12415E+01
 -1       108-5.07279E+02-5.13006E+02-1.19994E+03-3.25003E-02 2.53671E-03-8.13147E+01
 -1       109-4.08248E+02-3.67938E+02-8.17266E+02-3.05273E-02 1.21826E-02-1.07107E+02
 -1       110-4.07246E+02-3.67498E+02-8.16806E+02-3.05274E-02 1.21826E-02-1.07141E+02
 -1       111-2.95928E+02-2.01803E+02-3.76848E+02-1.12480E-02 5.86181E-03-1.12785E+02
 -1       112-2.95088E+02-2.01496E+02-3.76669E+02-1.12481E-02 5.86182E-03-1.12805E+02
 -1       113-1.83520E+02-4.47318E+01 3.43397E+01-2.75229E-02-8.96947E-03-9.08027E+01
 -1       114-1.82676E+02-4.43947E+01 3.46173E+01-2.75230E-02-8.96949E-03-9.06953E+01
 -1       115-8.08201E+01 8.11220E+01 3.51939E+02-1.52290E-02-4.07162E-03-7.38146E+01
 -1       116-7.96729E+01 8.16950E+01 3.52702E+02-1.52291E-02-4.07164E-03-7.37373E+01
 -1       117-1.01739E+01 1.69673E+02 5.77378E+02-9.04450E-03 2.25493E-02-7.81553E+01
 -1       118-9.26323E+00 1.70070E+02 5.77792E+02-9.04456E-03 2.25493E-02-7.83260E+01
 -1       119 2.80202E+01 2.14540E+02 6.89245E+02-1.55612E-02-1.18623E-03-6.64190E+01
 -1       120 2.87247E+01 2.14844E+02 6.89551E+02-1.55613E-02-1.18624E-03-6.63248E+01
 -1       121 1.09616E+02 2.24836E+02 6.41557E+02 1.65574E-02 2.29689E-02-1.99182E+01
 -1       122 1.10101E+02 2.24899E+02 6.41282E+02 1.65575E-02 2.29689E-02-2.02963E+01
 -1       123-1.25842E+02 6.54043E+01 3.44626E+02-7.59090E-02-5.71785E-02-1.03233E+02
 -1       124-1.23162E+02 6.64194E+01 3.45327E+02-7.59092E-02-5.71787E-02-1.02340E+02
 -1       125 7.63392E+02 4.15351E+02 6.23879E+02 1.88636E-01-2.94351E-02-2.69784E+02
 -1       126 7.56927E+02 4.12737E+02 6.21597E+02 1.88632E-01-2.94338E-02-2.68049E+02
 -3
    1PSTEP                        27           7           2          
  100CL  107 1.70000E-01         126                     1    7           1
 -4  TOSTRAIN    6    1
 -5  EXX         1    4    1    1
 -5  EYY         1    4    2    2
 -5  EZZ         1    4    3    3
 -5  EXY         1    4    1    2
 -5  EYZ         1    4    2    3
 -5  EZX         1    4    3    1
 -1         1-1.28995E-05 1.39975E-15-1.09609E-02-3.33143E-12-2.52277E-14 5.79817E-03
 -1         2-1.32244E-05-4.48684E-15 1.10596E-03 2.97929E-11 9.46373E-14 4.52041E-03
 -1         3-5.53716E-04 2.41047E-14 1.22979E-03 1.46697E-07 9.57361E-09 1.49709E-03
 -1         4 2.62228E-03-7.97265E-15-9.55592E-03-3.88341E-08-9.73796E-09 1.80915E-03
 -1         5-1.28990E-05 1.39975E-15-1.09611E-02-3.34617E-12-2.52279E-14 5.79794E-03
 -1         6-1.32228E-05-4.48684E-15 1.10606E-03 2.97834E-11 9.46379E-14 4.52129E-03
 -1         7-5.53338E-04 2.41047E-14 1.22977E-03 1.46697E-07 9.57365E-09 1.49732E-03
 -1         8 2.62004E-03-7.97265E-15-9.55585E-03-3.88340E-08-9.73797E-09 1.80914E-03
 -1         9-5.21368E-04 4.65402E-15 1.33579E-03 6.57532E-08-1.73610E-09 1.60779E-03
 -1        10 1.06779E-03 9.46407E-16-6.38323E-03 3.37510E-08 1.27917E-08 1.09248E-03
 -1        11-5.20785E-04 4.65402E-15 1.33575E-03 6.57532E-08-1.73613E-09 1.60760E-03
 -1        12 1.06741E-03 9.46407E-16-6.38327E-03 3.37510E-08 1.27917E-08 1.09257E-03
 -1        13-4.90716E-04-3.55498E-15 1.31884E-03 2.94397E-08 4.03805E-09 1.40147E-03
 -1        14 5.90388E-04 3.54596E-16-3.11059E-03-3.97963E-08-1.57344E-08 1.11955E-03
 -1        15-4.90211E-04-3.55498E-15 1.31891E-03 2.94398E-08 4.03805E-09 1.40145E-03
 -1        16 5.89557E-04 3.54596E-16-3.11060E-03-3.97963E-08-1.57344E-08 1.11938E-03
 -1        17-4.76540E-04 6.11342E-15 1.33625E-03 7.62305E-08 9.60693E-09 1.16887E-03
 -1        18-3.04823E-05-1.27055E-15-3.43730E-04 1.54959E-08 1.05771E-08 8.93660E-04
 -1        19-4.75919E-04 6.11342E-15 1.33627E-03 7.62305E-08 9.60694E-09 1.16893E-03
 -1        20-3.12116E-05-1.27055E-15-3.43577E-04 1.54959E-08 1.05771E-08 8.93747E-04
 -1        21-5.01574E-04-1.58484E-15 1.40770E-03 4.20984E-08 6.13834E-09 9.16183E-04
 -1        22-5.13697E-04-6.36954E-16 1.92190E-03-1.27692E-08 9.70179E-09 6.98406E-04
 -1        23-5.00927E-04-1.58484E-15 1.40768E-03 4.20984E-08 6.13834E-09 9.16162E-04
 -1        24-5.14355E-04-6.36954E-16 1.92194E-03-1.27692E-08 9.70179E-09 6.98367E-04
 -1        25-5.67560E-04 3.85444E-15 1.54490E-03 6.69211E-08 7.16896E-09 7.52380E-04
 -1        26-9.50406E-04-1.22021E-15 3.79242E-03-4.86228E-09 1.72783E-08 5.66589E-04
 -1        27-5.67037E-04 3.85444E-15 1.54493E-03 6.69211E-08 7.16897E-09 7.52539E-04
 -1        28-9.51267E-04-1.22021E-15 3.79256E-03-4.86227E-09 1.72783E-08 5.66730E-04
 -1        29-6.44380E-04 7.84409E-15 1.71368E-03 8.14969E-08 1.00570E-08 5.75506E-04
 -1        30-1.33282E-03 3.76572E-16 5.35762E-03 1.42466E-08 3.30324E-08 4.28901E-04
 -1        31-6.43836E-04 7.84409E-15 1.71364E-03 8.14969E-08 1.00569E-08 5.75522E-04
 -1        32-1.33363E-03 3.76572E-16 5.35761E-03 1.42466E-08 3.30324E-08 4.28956E-04
 -1        33-7.16851E-04-4.28455E-15 1.88063E-03 2.51623E-08 1.17203E-10 3.29729E-04
 -1        34-1.61547E-03 9.09498E-16 6.48117E-03-3.25049E-08 1.62419E-08 2.40371E-04
 -1        35-7.16237E-04-4.28455E-15 1.88048E-03 2.51623E-08 1.17198E-10 3.29714E-04
 -1        36-1.61616E-03 9.09498E-16 6.48090E-03-3.25049E-08 1.62419E-08 2.40354E-04
 -1        37-7.80088E-04 2.78974E-16 2.02482E-03 5.11974E-08-1.57556E-08 6.98704E-05
 -1        38-1.76316E-03-6.39275E-16 7.02520E-03-2.34287E-08-1.12761E-08 4.51241E-05
 -1        39-7.79587E-04 2.78974E-16 2.02471E-03 5.11974E-08-1.57556E-08 6.99945E-05
 -1        40-1.76406E-03-6.39275E-16 7.02506E-03-2.34287E-08-1.12761E-08 4.52032E-05
 -1        41-8.19874E-04 8.57400E-15 2.11909E-03 8.27479E-08-1.93382E-08-1.48497E-04
 -1        42-1.77259E-03-3.16364E-15 6.99861E-03-1.52625E-08-7.33698E-09-1.15240E-04
 -1        43-8.19571E-04 8.57400E-15 2.11911E-03 8.27480E-08-1.93382E-08-1.48555E-04
 -1        44-1.77376E-03-3.16364E-15 6.99860E-03-1.52625E-08-7.33698E-09-1.15304E-04
 -1        45-8.20865E-04-2.80218E-15 2.14134E-03 3.47963E-08-1.35997E-08-3.17115E-04
 -1        46-1.65680E-03 5.76048E-15 6.50087E-03-6.91417E-08-1.13969E-08-2.37706E-04
 -1        47-8.20645E-04-2.80218E-15 2.14138E-03 3.47963E-08-1.35997E-08-3.17259E-04
 -1        48-1.65804E-03 5.76048E-15 6.50081E-03-6.91416E-08-1.13969E-08-2.37853E-04
 -1        49-7.88235E-04-1.30821E-15 2.09756E-03 5.33560E-08-1.24560E-08-4.33724E-04
 -1        50-1.44379E-03 4.48070E-15 5.64137E-03-6.89395E-08-1.67818E-08-3.22196E-04
 -1        51-7.88052E-04-1.30821E-15 2.09766E-03 5.33560E-08-1.24560E-08-4.33672E-04
 -1        52-1.44526E-03 4.48070E-15 5.64174E-03-6.89394E-08-1.67818E-08-3.22224E-04
 -1        53-7.41845E-04 1.31371E-14 2.00269E-03 1.08108E-07 3.55446E-09-4.60916E-04
 -1        54-1.17565E-03 1.32626E-15 4.54898E-03-6.98687E-08 5.17899E-08-3.35964E-04
 -1        55-7.42044E-04 1.31371E-14 2.00298E-03 1.08108E-07 3.55445E-09-4.60834E-04
 -1        56-1.17778E-03 1.32626E-15 4.54979E-03-6.98685E-08 5.17899E-08-3.35925E-04
 -1        57-6.70224E-04-5.84855E-15 1.85598E-03 4.82693E-08 3.53926E-08-3.71469E-04
 -1        58-8.87208E-04 5.31194E-14 3.43832E-03-1.52344E-07 1.17761E-07-2.54463E-04
 -1        59-6.70601E-04-5.84855E-15 1.85595E-03 4.82693E-08 3.53926E-08-3.71034E-04
 -1        60-8.89615E-04 5.31194E-14 3.43832E-03-1.52343E-07 1.17761E-07-2.53826E-04
 -1        61-5.72447E-04 1.51654E-14 1.68029E-03 1.06476E-07-1.83253E-09-2.91496E-04
 -1        62-6.16424E-04-7.01173E-15 2.49259E-03-2.17431E-08 5.11175E-08-1.96430E-04
 -1        63-5.72280E-04 1.51654E-14 1.67996E-03 1.06476E-07-1.83249E-09-2.91118E-04
 -1        64-6.17962E-04-7.01173E-15 2.49179E-03-2.17430E-08 5.11175E-08-1.96138E-04
 -1        65-5.01322E-04 8.14101E-15 1.48529E-03 1.09876E-07-1.95009E-08-2.84070E-04
 -1        66-4.15787E-04 2.21060E-14 1.67607E-03-1.60790E-07-1.55858E-08-1.93518E-04
 -1        67-5.02112E-04 8.14101E-15 1.48533E-03 1.09876E-07-1.95010E-08-2.84480E-04
 -1        68-4.19035E-04 2.21060E-14 1.67608E-03-1.60790E-07-1.55856E-08-1.94211E-04
 -1        69-3.96650E-04-1.45313E-14 1.23010E-03 5.85229E-08 4.85445E-09-1.64192E-04
 -1        70-1.85076E-04 9.63179E-14 1.03563E-03-2.60791E-07 5.42711E-08-1.08958E-04
 -1        71-3.97911E-04-1.45313E-14 1.23002E-03 5.85228E-08 4.85447E-09-1.63844E-04
 -1        72-1.88908E-04 9.63179E-14 1.03491E-03-2.60790E-07 5.42710E-08-1.08554E-04
 -1        73-2.67326E-04 4.08850E-14 9.77296E-04 1.67814E-07-3.27244E-08-2.38135E-05
 -1        74-1.59557E-04 4.78734E-15 6.84768E-04-1.24913E-07-1.36458E-07 1.41226E-04
 -1        75-2.68399E-04 4.08850E-14 9.77377E-04 1.67814E-07-3.27243E-08-2.40044E-05
 -1        76-1.63070E-04 4.78734E-15 6.85779E-04-1.24912E-07-1.36459E-07 1.40466E-04
 -1        77-1.54069E-04-1.33826E-14 6.11615E-04 2.05743E-07 1.84596E-08 7.40058E-05
 -1        78 3.15785E-04 1.15187E-13 7.39180E-04-3.06535E-07 2.22740E-07-1.09041E-04
 -1        79-1.54425E-04-1.33826E-14 6.11701E-04 2.05743E-07 1.84594E-08 7.34581E-05
 -1        80 3.09638E-04 1.15187E-13 7.38774E-04-3.06534E-07 2.22739E-07-1.06487E-04
 -1        81 5.29823E-05 5.91626E-14 3.50170E-04-4.22574E-07-1.85163E-08 2.50480E-04
 -1        82-1.01678E-03-4.11810E-15 9.00347E-04 3.17536E-07-2.03873E-07-1.64454E-04
 -1        83 5.12128E-05 5.91626E-14 3.49726E-04-4.22573E-07-1.85156E-08 2.46388E-04
 -1        84-1.00790E-03-4.11810E-15 8.95226E-04 3.17538E-07-2.03872E-07-1.61829E-04
 -1        85-1.35493E-05-1.56387E-16 1.34371E-02-1.04980E-10 4.60889E-14 6.42088E-03
 -1        86-3.72971E-03 9.33198E-16 1.20710E-02-1.02589E-07-2.09113E-08 1.97802E-03
 -1        87-1.35467E-05-1.56387E-16 1.34368E-02-1.04927E-10 4.60889E-14 6.42026E-03
 -1        88-3.72672E-03 9.33198E-16 1.20707E-02-1.02590E-07-2.09113E-08 1.97801E-03
 -1        89-2.11053E-03 4.78756E-15 8.99420E-03-6.36083E-08-4.28657E-08 1.07621E-03
 -1        90-2.10898E-03 4.78756E-15 8.99433E-03-6.36084E-08-4.28657E-08 1.07639E-03
 -1        91-1.57182E-03 2.18825E-14 5.78565E-03-1.23938E-07 4.22412E-11 1.11178E-03
 -1        92-1.56998E-03 2.18825E-14 5.78592E-03-1.23938E-07 4.22545E-11 1.11173E-03
 -1        93-9.22599E-04 6.14920E-15 3.06205E-03-8.82052E-08 4.43749E-10 8.97412E-04
 -1        94-9.20626E-04 6.14920E-15 3.06209E-03-8.82054E-08 4.43745E-10 8.97478E-04
 -1        95-4.89451E-04 2.00364E-14 9.32942E-04-1.20477E-07 7.36233E-09 7.19476E-04
 -1        96-4.87500E-04 2.00364E-14 9.32960E-04-1.20477E-07 7.36233E-09 7.19457E-04
 -1        97-1.84714E-04 8.29027E-15-6.83296E-04-9.19105E-08 3.63444E-09 6.00011E-04
 -1        98-1.82808E-04 8.29027E-15-6.83428E-04-9.19107E-08 3.63441E-09 6.00165E-04
 -1        99 4.40616E-05 2.86959E-15-1.92405E-03-7.61821E-08-1.42259E-08 4.64227E-04
 -1       100 4.59545E-05 2.86959E-15-1.92413E-03-7.61822E-08-1.42258E-08 4.64244E-04
 -1       101 1.81770E-04 2.72145E-14-2.71932E-03-1.34764E-07-9.12169E-09 2.71781E-04
 -1       102 1.83690E-04 2.72145E-14-2.71921E-03-1.34764E-07-9.12166E-09 2.71745E-04
 -1       103 2.02986E-04 1.39730E-14-2.98592E-03-1.06849E-07 5.11150E-09 6.75893E-05
 -1       104 2.04884E-04 1.39730E-14-2.98590E-03-1.06850E-07 5.11146E-09 6.76720E-05
 -1       105 1.32838E-04 6.65441E-16-2.78229E-03-6.57208E-08-4.29165E-09-1.08179E-04
 -1       106 1.34621E-04 6.65441E-16-2.78228E-03-6.57210E-08-4.29164E-09-1.08266E-04
 -1       107 1.50654E-05 1.53062E-14-2.23820E-03-1.05744E-07 7.43787E-09-2.47964E-04
 -1       108 1.67523E-05 1.53062E-14-2.23794E-03-1.05744E-07 7.43789E-09-2.48191E-04
 -1       109-1.32679E-04 1.33369E-14-1.46114E-03-9.93707E-08 3.93081E-08-3.44189E-04
 -1       110-1.30846E-04 1.33369E-14-1.46107E-03-9.93710E-08 3.93080E-08-3.44292E-04
 -1       111-3.08044E-04-5.02778E-15-5.66607E-04-3.65458E-08 1.90530E-08-3.66576E-04
 -1       112-3.06308E-04-5.02778E-15-5.67019E-04-3.65458E-08 1.90530E-08-3.66640E-04
 -1       113-4.53240E-04 9.11815E-15 2.59114E-04-8.95456E-08-2.89779E-08-2.93571E-04
 -1       114-4.51586E-04 9.11815E-15 2.58920E-04-8.95458E-08-2.89779E-08-2.93224E-04
 -1       115-5.28469E-04-4.13216E-15 8.80059E-04-4.95447E-08-1.30742E-08-2.35294E-04
 -1       116-5.26597E-04-4.13216E-15 8.80672E-04-4.95448E-08-1.30743E-08-2.35045E-04
 -1       117-5.86857E-04 1.34142E-15 1.32266E-03-2.91242E-08 7.32537E-08-2.46845E-04
 -1       118-5.85189E-04 1.34142E-15 1.32272E-03-2.91243E-08 7.32537E-08-2.47405E-04
 -1       119-6.08223E-04-2.06599E-15 1.53874E-03-5.05939E-08-3.69409E-09-2.08277E-04
 -1       120-6.06914E-04-2.06599E-15 1.53874E-03-5.05939E-08-3.69411E-09-2.07976E-04
 -1       121-3.75094E-04-1.41785E-14 1.35034E-03 5.40194E-08 7.43864E-08-5.97713E-05
 -1       122-3.73729E-04-1.41785E-14 1.34925E-03 5.40195E-08 7.43862E-08-6.10037E-05
 -1       123-6.23922E-04 2.56944E-14 9.07199E-04-2.47175E-07-1.85074E-07-3.31585E-04
 -1       124-6.18487E-04 2.56944E-14 9.06170E-04-2.47175E-07-1.85074E-07-3.28693E-04
 -1       125 1.12274E-03 2.83133E-13 6.79830E-04 6.11893E-07-9.68050E-08-8.74504E-04
 -1       126 1.11033E-03 2.83133E-13 6.80888E-04 6.11888E-07-9.68019E-08-8.68872E-04
 -3
    1PSTEP                        28           7           2          
  100CL  107 1.70000E-01         126                     1    7           1
 -4  ERROR       1    1
 -5  STR(%)      1    1    0    0
 -1         1 7.16628E+01
 -1         2 7.16628E+01
 -1         3 7.42483E+01
 -1         4 7.42483E+01
 -1         5 7.16628E+01
 -1         6 7.16628E+01
 -1         7 7.42483E+01
 -1         8 7.42483E+01
 -1         9 7.61403E+01
 -1        10 7.61403E+01
 -1        11 7.61403E+01
 -1        12 7.61403E+01
 -1        13 7.61403E+01
 -1        14 7.61403E+01
 -1        15 7.61403E+01
 -1        16 7.61403E+01
 -1        17 7.59473E+01
 -1        18 7.59473E+01
 -1        19 7.59473E+01
 -1        20 7.59473E+01
 -1        21 5.42513E+01
 -1        22 1.91243E+01
 -1        23 5.42513E+01
 -1        24 1.91243E+01
 -1        25 9.89974E+01
 -1        26 3.33821E+01
 -1        27 9.89974E+01
 -1        28 3.33821E+01
 -1        29 9.89974E+01
 -1        30 3.79848E+01
 -1        31 9.89974E+01
 -1        32 3.79848E+01
 -1        33 9.66910E+01
 -1        34 3.87249E+01
 -1        35 9.66910E+01
 -1        36 3.87249E+01
 -1        37 9.51514E+01
 -1        38 3.87249E+01
 -1        39 9.51514E+01
 -1        40 3.87249E+01
 -1        41 9.93407E+01
 -1        42 3.81033E+01
 -1        43 9.93407E+01
 -1        44 3.81033E+01
 -1        45 1.02883E+02
 -1        46 3.68284E+01
 -1        47 1.02883E+02
 -1        48 3.68284E+01
 -1        49 1.02883E+02
 -1        50 3.43935E+01
 -1        51 1.02883E+02
 -1        52 3.43935E+01
 -1        53 9.13822E+01
 -1        54 3.01408E+01
 -1        55 9.13822E+01
 -1        56 3.01408E+01
 -1        57 6.73604E+01
 -1        58 2.32031E+01
 -1        59 6.73604E+01
 -1        60 2.32031E+01
 -1        61 3.67310E+01
 -1        62 1.57033E+01
 -1        63 3.67310E+01
 -1        64 1.57033E+01
 -1        65 1.13964E+01
 -1        66 5.71098E+00
 -1        67 1.13964E+01
 -1        68 5.71098E+00
 -1        69 1.48172E+01
 -1        70 7.56276E+00
 -1        71 1.48172E+01
 -1        72 7.56276E+00
 -1        73 1.48172E+01
 -1        74 1.34705E+01
 -1        75 1.48172E+01
 -1        76 1.34705E+01
 -1        77 5.73072E+01
 -1        78 5.73072E+01
 -1        79 5.73072E+01
 -1        80 5.73072E+01
 -1        81 5.73072E+01
 -1        82 5.73072E+01
 -1        83 5.73072E+01
 -1        84 5.73072E+01
 -1        85 5.88118E+01
 -1        86 5.88118E+01
 -1        87 5.88118E+01
 -1        88 5.88118E+01
 -1        89 5.12423E+01
 -1        90 5.12423E+01
 -1        91 4.69107E+01
 -1        92 4.69107E+01
 -1        93 3.35442E+01
 -1        94 3.35442E+01
 -1        95 5.42513E+01
 -1        96 5.42513E+01
 -1        97 9.89974E+01
 -1        98 9.89974E+01
 -1        99 9.89974E+01
 -1       100 9.89974E+01
 -1       101 9.66910E+01
 -1       102 9.66910E+01
 -1       103 9.51514E+01
 -1       104 9.51514E+01
 -1       105 9.93407E+01
 -1       106 9.93407E+01
 -1       107 1.02883E+02
 -1       108 1.02883E+02
 -1       109 1.02883E+02
 -1       110 1.02883E+02
 -1       111 9.13822E+01
 -1       112 9.13822E+01
 -1       113 6.73604E+01
 -1       114 6.73604E+01
 -1       115 3.67310E+01
 -1       116 3.67310E+01
 -1       117 1.13964E+01
 -1       118 1.13964E+01
 -1       119 1.48172E+01
 -1       120 1.48172E+01
 -1       121 1.48172E+01
 -1       122 1.48172E+01
 -1       123 5.71222E+01
 -1       124 5.71222E+01
 -1       125 5.71222E+01
 -1       126 5.71222E+01
 -3
    1PSTEP                        29           8           2          
  100CL  108 1.80000E-01         126                     1    8           1
 -4  DISP        4    1
 -5  D1          1    2    1    0
 -5  D2          1    2    2    0
 -5  D3          1    2    3    0
 -5  ALL         1    2    0    0    1ALL
 -1         1 0.00000E+00 0.00000E+00 0.00000E+00
 -1         2 0.00000E+00 0.00000E+00 0.00000E+00
 -1         3 5.16907E-04 0.00000E+00 5.28461E-05
 -1         4 6.51020E-04 0.00000E+00-6.12146E-04
 -1         5 0.00000E+00 0.00000E+00 0.00000E+00
 -1         6 0.00000E+00 0.00000E+00 0.00000E+00
 -1         7 5.16864E-04 0.00000E+00 5.28270E-05
 -1         8 6.51067E-04 0.00000E+00-6.12153E-04
 -1         9 1.69141E-03 0.00000E+00 1.10897E-04
 -1        10 1.72720E-03 0.00000E+00-1.06375E-03
 -1        11 1.69138E-03 0.00000E+00 1.10878E-04
 -1        12 1.72717E-03 0.00000E+00-1.06377E-03
 -1        13 3.21505E-03 0.00000E+00 1.58411E-04
 -1        14 3.21702E-03 0.00000E+00-1.33369E-03
 -1        15 3.21504E-03 0.00000E+00 1.58390E-04
 -1        16 3.21702E-03 0.00000E+00-1.33370E-03
 -1        17 4.96158E-03 0.00000E+00 2.02041E-04
 -1        18 4.92490E-03 0.00000E+00-1.46097E-03
 -1        19 4.96155E-03 0.00000E+00 2.02031E-04
 -1        20 4.92488E-03 0.00000E+00-1.46098E-03
 -1        21 6.79456E-03 0.00000E+00 2.45964E-04
 -1        22 6.73005E-03 0.00000E+00-1.45836E-03
 -1        23 6.79454E-03 0.00000E+00 2.45969E-04
 -1        24 6.73003E-03 0.00000E+00-1.45836E-03
 -1        25 8.58707E-03 0.00000E+00 2.92933E-04
 -1        26 8.50302E-03 0.00000E+00-1.34170E-03
 -1        27 8.58704E-03 0.00000E+00 2.92942E-04
 -1        28 8.50301E-03 0.00000E+00-1.34170E-03
 -1        29 1.02381E-02 0.00000E+00 3.47010E-04
 -1        30 1.01416E-02 0.00000E+00-1.13124E-03
 -1        31 1.02380E-02 0.00000E+00 3.47016E-04
 -1        32 1.01415E-02 0.00000E+00-1.13124E-03
 -1        33 1.16741E-02 0.00000E+00 4.11815E-04
 -1        34 1.15707E-02 0.00000E+00-8.48361E-04
 -1        35 1.16741E-02 0.00000E+00 4.11820E-04
 -1        36 1.15706E-02 0.00000E+00-8.48363E-04
 -1        37 1.28467E-02 0.00000E+00 4.88482E-04
 -1        38 1.27407E-02 0.00000E+00-5.13695E-04
 -1        39 1.28466E-02 0.00000E+00 4.88486E-04
 -1        40 1.27408E-02 0.00000E+00-5.13707E-04
 -1        41 1.37191E-02 0.00000E+00 5.75977E-04
 -1        42 1.36160E-02 0.00000E+00-1.51745E-04
 -1        43 1.37191E-02 0.00000E+00 5.75975E-04
 -1        44 1.36160E-02 0.00000E+00-1.51754E-04
 -1        45 1.42874E-02 0.00000E+00 6.71591E-04
 -1        46 1.41923E-02 0.00000E+00 2.05822E-04
 -1        47 1.42874E-02 0.00000E+00 6.71580E-04
 -1        48 1.41923E-02 0.00000E+00 2.05822E-04
 -1        49 1.45927E-02 0.00000E+00 7.71714E-04
 -1        50 1.45086E-02 0.00000E+00 5.32181E-04
 -1        51 1.45927E-02 0.00000E+00 7.71708E-04
 -1        52 1.45086E-02 0.00000E+00 5.32193E-04
 -1        53 1.46860E-02 0.00000E+00 8.71960E-04
 -1        54 1.46154E-02 0.00000E+00 8.11496E-04
 -1        55 1.46859E-02 0.00000E+00 8.71965E-04
 -1        56 1.46154E-02 0.00000E+00 8.11500E-04
 -1        57 1.46227E-02 0.00000E+00 9.68044E-04
 -1        58 1.45667E-02 0.00000E+00 1.03647E-03
 -1        59 1.46227E-02 0.00000E+00 9.68038E-04
 -1        60 1.45668E-02 0.00000E+00 1.03644E-03
 -1        61 1.44554E-02 0.00000E+00 1.05817E-03
 -1        62 1.44122E-02 0.00000E+00 1.20768E-03
 -1        63 1.44554E-02 0.00000E+00 1.05817E-03
 -1        64 1.44122E-02 0.00000E+00 1.20765E-03
 -1        65 1.42384E-02 0.00000E+00 1.13959E-03
 -1        66 1.42076E-02 0.00000E+00 1.33031E-03
 -1        67 1.42383E-02 0.00000E+00 1.13962E-03
 -1        68 1.42077E-02 0.00000E+00 1.33034E-03
 -1        69 1.40192E-02 0.00000E+00 1.20912E-03
 -1        70 1.39992E-02 0.00000E+00 1.41969E-03
 -1        71 1.40192E-02 0.00000E+00 1.20912E-03
 -1        72 1.39994E-02 0.00000E+00 1.41966E-03
 -1        73 1.37961E-02 0.00000E+00 1.26634E-03
 -1        74 1.37787E-02 0.00000E+00 1.49320E-03
 -1        75 1.37961E-02 0.00000E+00 1.26633E-03
 -1        76 1.37788E-02 0.00000E+00 1.49324E-03
 -1        77 1.35597E-02 0.00000E+00 1.30887E-03
 -1        78 1.35679E-02 0.00000E+00 1.53988E-03
 -1        79 1.35597E-02 0.00000E+00 1.30886E-03
 -1        80 1.35682E-02 0.00000E+00 1.53978E-03
 -1        81 1.33249E-02 0.00000E+00 1.32509E-03
 -1        82 1.32634E-02 0.00000E+00 1.59721E-03
 -1        83 1.33250E-02 0.00000E+00 1.32508E-03
 -1        84 1.32632E-02 0.00000E+00 1.59730E-03
 -1        85 0.00000E+00 0.00000E+00 0.00000E+00
 -1        86 7.28279E-04 0.00000E+00 7.24487E-04
 -1        87 0.00000E+00 0.00000E+00 0.00000E+00
 -1        88 7.28374E-04 0.00000E+00 7.24483E-04
 -1        89 1.82466E-03 0.00000E+00 1.28117E-03
 -1        90 1.82471E-03 0.00000E+00 1.28116E-03
 -1        91 3.33208E-03 0.00000E+00 1.64688E-03
 -1        92 3.33216E-03 0.00000E+00 1.64686E-03
 -1        93 5.05452E-03 0.00000E+00 1.86372E-03
 -1        94 5.05459E-03 0.00000E+00 1.86371E-03
 -1        95 6.86385E-03 0.00000E+00 1.95044E-03
 -1        96 6.86393E-03 0.00000E+00 1.95044E-03
 -1        97 8.63305E-03 0.00000E+00 1.92986E-03
 -1        98 8.63311E-03 0.00000E+00 1.92987E-03
 -1        99 1.02646E-02 0.00000E+00 1.82936E-03
 -1       100 1.02647E-02 0.00000E+00 1.82937E-03
 -1       101 1.16858E-02 0.00000E+00 1.67662E-03
 -1       102 1.16858E-02 0.00000E+00 1.67663E-03
 -1       103 1.28481E-02 0.00000E+00 1.49464E-03
 -1       104 1.28481E-02 0.00000E+00 1.49465E-03
 -1       105 1.37167E-02 0.00000E+00 1.30630E-03
 -1       106 1.37168E-02 0.00000E+00 1.30629E-03
 -1       107 1.42881E-02 0.00000E+00 1.13835E-03
 -1       108 1.42882E-02 0.00000E+00 1.13833E-03
 -1       109 1.46010E-02 0.00000E+00 1.01012E-03
 -1       110 1.46010E-02 0.00000E+00 1.01008E-03
 -1       111 1.47027E-02 0.00000E+00 9.28992E-04
 -1       112 1.47027E-02 0.00000E+00 9.28965E-04
 -1       113 1.46469E-02 0.00000E+00 8.95488E-04
 -1       114 1.46470E-02 0.00000E+00 8.95497E-04
 -1       115 1.44861E-02 0.00000E+00 9.03751E-04
 -1       116 1.44861E-02 0.00000E+00 9.03793E-04
 -1       117 1.42704E-02 0.00000E+00 9.42561E-04
 -1       118 1.42704E-02 0.00000E+00 9.42556E-04
 -1       119 1.40476E-02 0.00000E+00 9.94952E-04
 -1       120 1.40476E-02 0.00000E+00 9.94971E-04
 -1       121 1.38149E-02 0.00000E+00 1.04351E-03
 -1       122 1.38148E-02 0.00000E+00 1.04350E-03
 -1       123 1.35904E-02 0.00000E+00 1.07829E-03
 -1       124 1.35906E-02 0.00000E+00 1.07837E-03
 -1       125 1.32739E-02 0.00000E+00 1.10001E-03
 -1       126 1.32735E-02 0.00000E+00 1.10006E-03
 -3
    1PSTEP                        30           8           2          
  100CL  108 1.80000E-01         126                     1    8           1
 -4  STRESS      6    1
 -5  SXX         1    4    1    1
 -5  SYY         1    4    2    2
 -5  SZZ         1    4    3    3
 -5  SXY         1    4    1    2
 -5  SYZ         1    4    2    3
 -5  SZX         1    4    3    1
 -1         1-2.77727E+03-2.82289E+03-6.46255E+03-3.56250E-05 5.54987E-05 1.92465E+03
 -1         2 2.81843E+02 2.56078E+02 5.61762E+02-2.87772E-05-4.85184E-05 1.59459E+03
 -1         3-3.73537E+01 1.34990E+02 4.84506E+02-2.17969E-02-9.91761E-03 5.50410E+02
 -1         4-9.02137E+02-1.77912E+03-4.94838E+03 2.43054E-02-3.49580E-03 5.71358E+02
 -1         5-2.77730E+03-2.82292E+03-6.46262E+03-3.56432E-05 5.54985E-05 1.92479E+03
 -1         6 2.81744E+02 2.55988E+02 5.61550E+02-2.87814E-05-4.85188E-05 1.59446E+03
 -1         7-3.76437E+01 1.34835E+02 4.84292E+02-2.17969E-02-9.91760E-03 5.50355E+02
 -1         8-9.01209E+02-1.77874E+03-4.94806E+03 2.43055E-02-3.49580E-03 5.71346E+02
 -1         9-1.40798E+01 1.67320E+02 5.67344E+02-1.69043E-02-9.73715E-03 5.51852E+02
 -1        10-1.03574E+03-1.36070E+03-3.46050E+03-1.55434E-02-9.27919E-03 2.99882E+02
 -1        11-1.44776E+01 1.67147E+02 5.67167E+02-1.69043E-02-9.73715E-03 5.51877E+02
 -1        12-1.03574E+03-1.36071E+03-3.46054E+03-1.55434E-02-9.27918E-03 2.99814E+02
 -1        13-1.44293E+01 1.71246E+02 5.86498E+02-8.95528E-03-1.06230E-02 4.56067E+02
 -1        14-5.16059E+02-6.86775E+02-1.76235E+03 6.50455E-04-8.71004E-03 3.07572E+02
 -1        15-1.48447E+01 1.71078E+02 5.86358E+02-8.95526E-03-1.06230E-02 4.56075E+02
 -1        16-5.15854E+02-6.86686E+02-1.76226E+03 6.50453E-04-8.71005E-03 3.07586E+02
 -1        17-2.13709E+01 1.78512E+02 6.19363E+02-1.61953E-02-5.09387E-03 4.04196E+02
 -1        18-2.22103E+02-1.86958E+02-3.98787E+02-1.36286E-02-8.59085E-03 2.84561E+02
 -1        19-2.18532E+01 1.78339E+02 6.19269E+02-1.61952E-02-5.09387E-03 4.04186E+02
 -1        20-2.22014E+02-1.86899E+02-3.98677E+02-1.36286E-02-8.59085E-03 2.84521E+02
 -1        21-2.13829E+01 1.86874E+02 6.47502E+02-1.12615E-02 2.56192E-03 3.46134E+02
 -1        22 6.00102E+01 2.59194E+02 8.08780E+02-5.81191E-03-7.35617E-04 2.74639E+02
 -1        23-2.18280E+01 1.86708E+02 6.47393E+02-1.12615E-02 2.56192E-03 3.46143E+02
 -1        24 6.01717E+01 2.59289E+02 8.08934E+02-5.81191E-03-7.35618E-04 2.74643E+02
 -1        25-2.23316E+01 1.93786E+02 6.70787E+02-1.60312E-02 4.42952E-03 2.76945E+02
 -1        26 2.87831E+02 6.24544E+02 1.80786E+03-5.61087E-03 1.02628E-03 2.45577E+02
 -1        27-2.27234E+01 1.93620E+02 6.70623E+02-1.60312E-02 4.42952E-03 2.76921E+02
 -1        28 2.88059E+02 6.24647E+02 1.80798E+03-5.61087E-03 1.02628E-03 2.45547E+02
 -1        29-2.76864E+01 2.02088E+02 7.02823E+02-1.85541E-02 2.87490E-03 2.06112E+02
 -1        30 4.55773E+02 9.02660E+02 2.57829E+03-8.30397E-03 1.46725E-03 2.04368E+02
 -1        31-2.80859E+01 2.01914E+02 7.02639E+02-1.85541E-02 2.87490E-03 2.06096E+02
 -1        32 4.55976E+02 9.02741E+02 2.57835E+03-8.30398E-03 1.46725E-03 2.04346E+02
 -1        33-3.26703E+01 2.13832E+02 7.46112E+02-2.20198E-02 2.96612E-03 1.38908E+02
 -1        34 5.69090E+02 1.09914E+03 3.13036E+03-9.32282E-03-1.33775E-03 1.55256E+02
 -1        35-3.30468E+01 2.13671E+02 7.45948E+02-2.20198E-02 2.96612E-03 1.38919E+02
 -1        36 5.69324E+02 1.09922E+03 3.13040E+03-9.32283E-03-1.33775E-03 1.55266E+02
 -1        37-3.51727E+01 2.27105E+02 7.92608E+02-1.19117E-02 2.36768E-03 6.47492E+01
 -1        38 6.30009E+02 1.21407E+03 3.45989E+03 4.32487E-03-6.17784E-03 9.23619E+01
 -1        39-3.54888E+01 2.26960E+02 7.92438E+02-1.19117E-02 2.36768E-03 6.47735E+01
 -1        40 6.30340E+02 1.21420E+03 3.46001E+03 4.32487E-03-6.17784E-03 9.23864E+01
 -1        41-3.42796E+01 2.39901E+02 8.34620E+02-4.42920E-03-1.35749E-03-2.05470E+01
 -1        42 6.35846E+02 1.23433E+03 3.52315E+03 1.61670E-02-4.56119E-03 1.48491E+01
 -1        43-3.45217E+01 2.39778E+02 8.34449E+02-4.42920E-03-1.35749E-03-2.05676E+01
 -1        44 6.36304E+02 1.23454E+03 3.52340E+03 1.61670E-02-4.56120E-03 1.48345E+01
 -1        45-3.01667E+01 2.50230E+02 8.65396E+02-1.85656E-02-5.50192E-03-8.69675E+01
 -1        46 5.88781E+02 1.15920E+03 3.31490E+03 6.34502E-03-7.01575E-05-4.81621E+01
 -1        47-3.03242E+01 2.50159E+02 8.65314E+02-1.85656E-02-5.50191E-03-8.69792E+01
 -1        48 5.89344E+02 1.15946E+03 3.31523E+03 6.34503E-03-7.01583E-05-4.81656E+01
 -1        49-2.55980E+01 2.54286E+02 8.75085E+02-2.08571E-02-3.02773E-03-1.20524E+02
 -1        50 5.01724E+02 1.01470E+03 2.91180E+03 4.76945E-03 5.93282E-03-8.14512E+01
 -1        51-2.57496E+01 2.54242E+02 8.75090E+02-2.08571E-02-3.02773E-03-1.20478E+02
 -1        52 5.02268E+02 1.01494E+03 2.91205E+03 4.76946E-03 5.93282E-03-8.13794E+01
 -1        53-1.50501E+01 2.52254E+02 8.58310E+02-2.56699E-02 2.70737E-03-1.34683E+02
 -1        54 4.05197E+02 8.38400E+02 2.41140E+03 1.25583E-02 2.15707E-03-9.65058E+01
 -1        55-1.50978E+01 2.52234E+02 8.58290E+02-2.56699E-02 2.70736E-03-1.34616E+02
 -1        56 4.05887E+02 8.38634E+02 2.41148E+03 1.25583E-02 2.15708E-03-9.63809E+01
 -1        57 2.83162E-01 2.45642E+02 8.21184E+02-1.48607E-02-3.01735E-03-1.38972E+02
 -1        58 3.12980E+02 6.56469E+02 1.88914E+03 4.71230E-02-1.83602E-02-1.04071E+02
 -1        59 5.71217E-01 2.45767E+02 8.21311E+02-1.48608E-02-3.01735E-03-1.39025E+02
 -1        60 3.14208E+02 6.56955E+02 1.88954E+03 4.71232E-02-1.83602E-02-1.04134E+02
 -1        61 3.54816E+00 2.28261E+02 7.59834E+02-2.01533E-02 3.00498E-03-1.25296E+02
 -1        62 2.17082E+02 4.80980E+02 1.39403E+03 2.21346E-02-1.31719E-02-9.47872E+01
 -1        63 3.68139E+00 2.28365E+02 7.60049E+02-2.01533E-02 3.00501E-03-1.25458E+02
 -1        64 2.18116E+02 4.81508E+02 1.39476E+03 2.21348E-02-1.31720E-02-9.49398E+01
 -1        65 1.77289E+01 2.07611E+02 6.76322E+02-3.40836E-02 1.54342E-02-7.61151E+01
 -1        66 1.63961E+02 3.50746E+02 1.00932E+03 2.87557E-02 1.50150E-02-5.03967E+01
 -1        67 1.80028E+01 2.07715E+02 6.76394E+02-3.40836E-02 1.54342E-02-7.60525E+01
 -1        68 1.65268E+02 3.51302E+02 1.00986E+03 2.87559E-02 1.50150E-02-5.01781E+01
 -1        69 3.93821E+01 1.85184E+02 5.79344E+02-1.70882E-02-2.29145E-03-2.82195E+01
 -1        70 1.67328E+02 2.87635E+02 7.93917E+02 9.50996E-02-1.46695E-02-1.32901E+01
 -1        71 4.03327E+01 1.85547E+02 5.79603E+02-1.70883E-02-2.29144E-03-2.83089E+01
 -1        72 1.69701E+02 2.88665E+02 7.94978E+02 9.51006E-02-1.46696E-02-1.33130E+01
 -1        73 4.34197E+01 1.51472E+02 4.62390E+02-4.00026E-02-1.80775E-03-1.60161E+01
 -1        74 9.72289E+01 2.01494E+02 5.75798E+02 4.48379E-02 2.01726E-02 3.35582E+01
 -1        75 4.42232E+01 1.51802E+02 4.62686E+02-4.00027E-02-1.80775E-03-1.60083E+01
 -1        76 9.88620E+01 2.02111E+02 5.76222E+02 4.48382E-02 2.01726E-02 3.37986E+01
 -1        77 2.27978E+01 8.86805E+01 2.73035E+02-3.64922E-02-8.01128E-03-1.54102E+01
 -1        78 3.37763E+02 2.83184E+02 6.07618E+02 1.30440E-01-4.70806E-02-8.29119E+01
 -1        79 2.34222E+01 8.89397E+01 2.73273E+02-3.64923E-02-8.01120E-03-1.53326E+01
 -1        80 3.41397E+02 2.84807E+02 6.09404E+02 1.30442E-01-4.70811E-02-8.36134E+01
 -1        81 2.78941E+01 5.59751E+01 1.59629E+02 7.22681E-02-4.78893E-03 4.18504E+01
 -1        82-3.82850E+02-1.10777E+01 3.47189E+02-1.10930E-01 4.71535E-02-1.01531E+02
 -1        83 2.90106E+01 5.64650E+01 1.60159E+02 7.22686E-02-4.78924E-03 4.25795E+01
 -1        84-3.85811E+02-1.18635E+01 3.47539E+02-1.10930E-01 4.71543E-02-1.02677E+02
 -1        85 3.40168E+03 3.34389E+03 7.99222E+03 7.98431E-05 1.06995E-04 2.34574E+03
 -1        86 8.04579E+02 2.04450E+03 6.13991E+03 4.85618E-02-2.08785E-03 7.95733E+02
 -1        87 3.40168E+03 3.34388E+03 7.99219E+03 7.98982E-05 1.06997E-04 2.34604E+03
 -1        88 8.03105E+02 2.04386E+03 6.13923E+03 4.85615E-02-2.08784E-03 7.95756E+02
 -1        89 9.45886E+02 1.65539E+03 4.64989E+03 2.26750E-02-4.51190E-03 4.57155E+02
 -1        90 9.45034E+02 1.65501E+03 4.64947E+03 2.26749E-02-4.51190E-03 4.57107E+02
 -1        91 4.70995E+02 1.02716E+03 2.98821E+03 4.24097E-02-9.51086E-03 4.32210E+02
 -1        92 4.69925E+02 1.02670E+03 2.98774E+03 4.24094E-02-9.51084E-03 4.32258E+02
 -1        93 1.64861E+02 5.43049E+02 1.65876E+03 3.81095E-02-5.64563E-03 3.48264E+02
 -1        94 1.63761E+02 5.42598E+02 1.65835E+03 3.81093E-02-5.64562E-03 3.48272E+02
 -1        95-1.13600E+02 1.14756E+02 4.99453E+02 4.07527E-02-1.55319E-03 2.72363E+02
 -1        96-1.14655E+02 1.14325E+02 4.99072E+02 4.07525E-02-1.55318E-03 2.72379E+02
 -1        97-3.38449E+02-2.34347E+02-4.41420E+02 3.16313E-02 2.98215E-03 1.93508E+02
 -1        98-3.39439E+02-2.34764E+02-4.41816E+02 3.16312E-02 2.98214E-03 1.93491E+02
 -1        99-5.16702E+02-4.97837E+02-1.13931E+03 2.89333E-02 1.82241E-03 1.25641E+02
 -1       100-5.17704E+02-4.98268E+02-1.13974E+03 2.89332E-02 1.82241E-03 1.25640E+02
 -1       101-6.42375E+02-6.75081E+02-1.60135E+03 2.64185E-02 2.68194E-03 7.01615E+01
 -1       102-6.43385E+02-6.75510E+02-1.60176E+03 2.64184E-02 2.68194E-03 7.01822E+01
 -1       103-7.09971E+02-7.66671E+02-1.83689E+03 3.29419E-02 3.91731E-03 1.70395E+01
 -1       104-7.10944E+02-7.67107E+02-1.83737E+03 3.29418E-02 3.91731E-03 1.70628E+01
 -1       105-7.14023E+02-7.62605E+02-1.81955E+03 3.57577E-02-4.11842E-03-3.95958E+01
 -1       106-7.14946E+02-7.63045E+02-1.82009E+03 3.57576E-02-4.11842E-03-3.96139E+01
 -1       107-6.59266E+02-6.68084E+02-1.56190E+03 2.02888E-02-1.25246E-02-7.95862E+01
 -1       108-6.60143E+02-6.68494E+02-1.56238E+03 2.02887E-02-1.25246E-02-7.95809E+01
 -1       109-5.64374E+02-5.17001E+02-1.15617E+03 2.25537E-02-1.65681E-02-9.69005E+01
 -1       110-5.65294E+02-5.17401E+02-1.15658E+03 2.25536E-02-1.65680E-02-9.68277E+01
 -1       111-4.43459E+02-3.41487E+02-6.94096E+02 1.69457E-02-1.40752E-02-1.04751E+02
 -1       112-4.44257E+02-3.41775E+02-6.94255E+02 1.69457E-02-1.40752E-02-1.04659E+02
 -1       113-3.17036E+02-1.69239E+02-2.47067E+02 1.96405E-02 4.86826E-03-1.09972E+02
 -1       114-3.17601E+02-1.69390E+02-2.47004E+02 1.96404E-02 4.86826E-03-1.10019E+02
 -1       115-2.16016E+02-3.00067E+01 1.16308E+02 1.73148E-02 2.15357E-02-1.04817E+02
 -1       116-2.16836E+02-3.03787E+01 1.15889E+02 1.73147E-02 2.15357E-02-1.04986E+02
 -1       117-1.26095E+02 6.71837E+01 3.50830E+02 3.74184E-04-2.75922E-03-6.93802E+01
 -1       118-1.26869E+02 6.68216E+01 3.50397E+02 3.74186E-04-2.75922E-03-6.93329E+01
 -1       119-6.47417E+01 1.06544E+02 4.20822E+02-2.96158E-03 9.70044E-03-4.28227E+01
 -1       120-6.50310E+01 1.06423E+02 4.20708E+02-2.96158E-03 9.70045E-03-4.29987E+01
 -1       121-1.85423E+00 1.10405E+02 3.70508E+02-3.41295E-02-1.50440E-03-1.85983E+01
 -1       122-1.84390E+00 1.10488E+02 3.70773E+02-3.41294E-02-1.50443E-03-1.83852E+01
 -1       123-1.89080E+02-5.17484E+00 1.72414E+02 6.87601E-02 4.00800E-02-1.23692E+02
 -1       124-1.91171E+02-6.01333E+00 1.71715E+02 6.87603E-02 4.00797E-02-1.24523E+02
 -1       125 6.63279E+02 3.42229E+02 4.79697E+02-2.15227E-01 2.20209E-02-2.82106E+02
 -1       126 6.69192E+02 3.44658E+02 4.81908E+02-2.15231E-01 2.20229E-02-2.83973E+02
 -3
    1PSTEP                        31           8           2          
  100CL  108 1.80000E-01         126                     1    8           1
 -4  TOSTRAIN    6    1
 -5  EXX         1    4    1    1
 -5  EYY         1    4    2    2
 -5  EZZ         1    4    3    3
 -5  EXY         1    4    1    2
 -5  EYZ         1    4    2    3
 -5  EZX         1    4    3    1
 -1         1-1.53863E-05-8.57211E-16-1.20983E-02-6.17315E-11 4.05222E-13 6.51007E-03
 -1         2-1.59209E-05 1.05086E-16 1.09494E-03-8.06559E-11 3.00468E-13 5.16894E-03
 -1         3-6.89301E-04-1.82140E-16 1.26187E-03-7.02578E-08-3.30510E-08 1.75984E-03
 -1         4 2.76207E-03 2.46605E-15-1.04334E-02 7.91713E-08-1.05100E-08 2.07987E-03
 -1         5-1.53865E-05-8.57211E-16-1.20984E-02-6.17546E-11 4.05222E-13 6.51055E-03
 -1         6-1.59224E-05 1.05086E-16 1.09455E-03-8.06617E-11 3.00468E-13 5.16852E-03
 -1         7-6.89771E-04-1.82140E-16 1.26167E-03-7.02578E-08-3.30510E-08 1.75966E-03
 -1         8 2.76387E-03 2.46605E-15-1.04335E-02 7.91714E-08-1.05101E-08 2.07985E-03
 -1         9-7.03877E-04 5.48542E-15 1.42019E-03-5.40434E-08-3.28758E-08 1.74055E-03
 -1        10 9.85730E-04 4.25186E-15-6.85600E-03-4.97914E-08-3.15638E-08 1.17743E-03
 -1        11-7.04619E-04 5.48542E-15 1.42018E-03-5.40434E-08-3.28758E-08 1.74062E-03
 -1        12 9.85782E-04 4.25186E-15-6.85611E-03-4.97914E-08-3.15638E-08 1.17721E-03
 -1        13-7.07160E-04-9.99192E-16 1.44678E-03-2.79432E-08-3.53193E-08 1.41558E-03
 -1        14 4.82439E-04 5.31334E-16-3.45179E-03 3.01185E-09-2.83961E-08 1.12740E-03
 -1        15-7.07974E-04-9.99192E-16 1.44687E-03-2.79432E-08-3.53193E-08 1.41558E-03
 -1        16 4.82811E-04 5.31334E-16-3.45177E-03 3.01185E-09-2.83961E-08 1.12746E-03
 -1        17-7.42957E-04 5.61547E-16 1.51632E-03-5.20121E-08-1.82528E-08 1.23627E-03
 -1        18-1.80700E-04 4.85527E-15-6.28130E-04-4.33075E-08-2.93916E-08 9.42828E-04
 -1        19-7.43963E-04 5.61547E-16 1.51657E-03-5.20120E-08-1.82528E-08 1.23620E-03
 -1        20-1.80595E-04 4.85527E-15-6.27977E-04-4.33075E-08-2.93916E-08 9.42695E-04
 -1        21-7.56249E-04-2.23045E-15 1.56644E-03-3.68910E-08 7.05590E-09 1.04367E-03
 -1        22-7.08557E-04 3.70757E-16 1.83401E-03-1.87943E-08-3.02950E-09 8.03895E-04
 -1        23-7.57157E-04-2.23045E-15 1.56662E-03-3.68910E-08 7.05590E-09 1.04366E-03
 -1        24-7.08340E-04 3.70757E-16 1.83420E-03-1.87943E-08-3.02950E-09 8.03909E-04
 -1        25-7.64704E-04 1.58578E-15 1.60431E-03-5.25942E-08 1.26500E-08 8.20787E-04
 -1        26-1.14568E-03 2.52726E-16 3.85914E-03-1.83264E-08 2.71465E-09 6.29041E-04
 -1        27-7.65429E-04 1.58578E-15 1.60431E-03-5.25942E-08 1.26500E-08 8.20684E-04
 -1        28-1.14527E-03 2.52726E-16 3.85919E-03-1.83264E-08 2.71465E-09 6.28956E-04
 -1        29-7.92495E-04 3.26848E-15 1.66707E-03-6.05996E-08 7.52834E-09 5.95700E-04
 -1        30-1.49238E-03 1.10215E-15 5.41720E-03-2.70958E-08 3.93172E-09 4.53083E-04
 -1        31-7.93221E-04 3.26848E-15 1.66703E-03-6.05996E-08 7.52835E-09 5.95628E-04
 -1        32-1.49198E-03 1.10215E-15 5.41716E-03-2.70958E-08 3.93172E-09 4.53025E-04
 -1        33-8.32964E-04 5.81293E-15 1.75746E-03-7.18395E-08 7.81153E-09 3.85195E-04
 -1        34-1.75180E-03 8.68793E-16 6.53376E-03-3.01395E-08-5.06364E-09 2.89447E-04
 -1        35-8.33659E-04 5.81293E-15 1.75745E-03-7.18395E-08 7.81152E-09 3.85212E-04
 -1        36-1.75130E-03 8.68793E-16 6.53362E-03-3.01395E-08-5.06364E-09 2.89494E-04
 -1        37-8.72694E-04-1.30226E-15 1.85413E-03-3.88966E-08 6.90153E-09 1.55565E-04
 -1        38-1.91753E-03-6.02257E-16 7.20141E-03 1.44728E-08-1.95987E-08 1.13527E-04
 -1        39-8.73249E-04-1.30226E-15 1.85405E-03-3.88966E-08 6.90152E-09 1.55634E-04
 -1        40-1.91689E-03-6.02257E-16 7.20136E-03 1.44728E-08-1.95987E-08 1.13617E-04
 -1        41-9.01757E-04-3.64973E-15 1.93869E-03-1.43492E-08-4.62023E-09-1.07221E-04
 -1        42-1.95577E-03 4.01806E-15 7.32826E-03 5.27390E-08-1.39267E-08-8.69767E-05
 -1        43-9.02140E-04-3.64973E-15 1.93854E-03-1.43492E-08-4.62023E-09-1.07291E-04
 -1        44-1.95497E-03 4.01806E-15 7.32838E-03 5.27390E-08-1.39267E-08-8.70136E-05
 -1        45-9.16441E-04 3.66520E-15 1.99881E-03-6.02109E-08-1.83951E-08-3.07939E-04
 -1        46-1.85927E-03-1.68154E-15 6.90372E-03 2.06411E-08-2.87696E-11-2.35271E-04
 -1        47-9.16716E-04 3.66520E-15 1.99877E-03-6.02109E-08-1.83951E-08-3.07978E-04
 -1        48-1.85830E-03-1.68154E-15 6.90392E-03 2.06411E-08-2.87763E-11-2.35272E-04
 -1        49-9.13523E-04 4.39026E-15 2.01440E-03-6.77798E-08-1.01087E-08-4.03392E-04
 -1        50-1.67101E-03-1.50793E-15 6.08477E-03 1.54408E-08 1.92326E-08-2.97919E-04
 -1        51-9.13873E-04 4.39026E-15 2.01456E-03-6.77798E-08-1.01087E-08-4.03242E-04
 -1        52-1.67001E-03-1.50793E-15 6.08482E-03 1.54409E-08 1.92326E-08-2.97682E-04
 -1        53-8.72661E-04 7.71539E-15 1.96560E-03-8.34586E-08 8.70245E-09-4.38660E-04
 -1        54-1.41130E-03-4.38117E-15 5.05620E-03 4.08295E-08 7.04109E-09-3.17574E-04
 -1        55-8.72747E-04 7.71539E-15 1.96560E-03-8.34586E-08 8.70244E-09-4.38443E-04
 -1        56-1.40981E-03-4.38117E-15 5.05573E-03 4.08296E-08 7.04110E-09-3.17171E-04
 -1        57-8.01643E-04-4.60817E-15 1.86654E-03-4.83254E-08-9.72932E-09-4.45556E-04
 -1        58-1.11966E-03 3.59547E-14 3.97194E-03 1.53014E-07-5.95742E-08-3.27850E-04
 -1        59-8.01108E-04-4.60817E-15 1.86655E-03-4.83254E-08-9.72933E-09-4.45728E-04
 -1        60-1.11724E-03 3.59547E-14 3.97164E-03 1.53014E-07-5.95742E-08-3.28056E-04
 -1        61-7.34383E-04 1.73688E-15 1.72423E-03-6.54766E-08 9.92087E-09-3.97789E-04
 -1        62-8.60614E-04 4.46546E-15 2.94915E-03 7.17800E-08-4.28778E-08-2.94187E-04
 -1        63-7.34292E-04 1.73688E-15 1.72459E-03-6.54766E-08 9.92090E-09-3.98314E-04
 -1        64-8.58967E-04 4.46546E-15 2.94980E-03 7.17801E-08-4.28779E-08-2.94682E-04
 -1        65-6.19702E-04 1.91212E-14 1.52010E-03-1.10568E-07 5.04941E-08-2.37975E-04
 -1        66-6.08597E-04-1.49414E-15 2.13084E-03 9.36585E-08 4.83106E-08-1.52238E-04
 -1        67-6.19147E-04 1.91212E-14 1.52000E-03-1.10568E-07 5.04940E-08-2.37774E-04
 -1        68-6.06146E-04-1.49414E-15 2.13080E-03 9.36587E-08 4.83107E-08-1.51541E-04
 -1        69-4.74898E-04-1.78537E-14 1.27801E-03-5.55689E-08-7.20238E-09-8.39166E-05
 -1        70-3.91393E-04 1.36232E-13 1.63936E-03 3.08809E-07-4.88690E-08-3.44377E-05
 -1        71-4.72988E-04-1.78537E-14 1.27767E-03-5.55690E-08-7.20238E-09-8.42162E-05
 -1        72-3.87021E-04 1.36232E-13 1.63946E-03 3.08810E-07-4.88689E-08-3.45307E-05
 -1        73-3.51718E-04 2.29197E-14 1.00853E-03-1.30034E-07-5.28300E-09-4.58143E-05
 -1        74-3.37906E-04 2.59018E-16 1.21185E-03 1.46014E-07 6.47887E-08 1.15748E-04
 -1        75-3.50176E-04 2.29197E-14 1.00842E-03-1.30034E-07-5.28297E-09-4.57962E-05
 -1        76-3.34594E-04 2.59018E-16 1.21122E-03 1.46015E-07 6.47887E-08 1.16511E-04
 -1        77-2.14284E-04-2.15506E-14 5.98699E-04-1.18712E-07-2.54658E-08-4.64344E-05
 -1        78 1.74224E-04 2.04784E-13 1.05419E-03 4.22988E-07-1.54800E-07-2.64497E-04
 -1        79-2.13090E-04-2.15506E-14 5.98629E-04-1.18712E-07-2.54657E-08-4.61917E-05
 -1        80 1.80724E-04 2.04784E-13 1.05473E-03 4.22990E-07-1.54801E-07-2.66793E-04
 -1        81-9.17900E-05-5.73575E-14 3.35226E-04 2.34742E-07-1.66840E-08 1.38534E-04
 -1        82-1.21404E-03 1.99130E-14 1.16560E-03-3.59839E-07 1.54926E-07-3.16984E-04
 -1        83-8.97577E-05-5.73575E-14 3.35330E-04 2.34743E-07-1.66850E-08 1.40897E-04
 -1        84-1.22117E-03 1.99130E-14 1.16932E-03-3.59838E-07 1.54928E-07-3.20645E-04
 -1        85-1.64556E-05-5.44003E-15 1.46839E-02 9.50045E-11 3.70051E-13 7.28264E-03
 -1        86-4.14067E-03 2.89996E-14 1.30556E-02 1.57978E-07-4.59420E-09 2.28220E-03
 -1        87-1.64582E-05-5.44003E-15 1.46839E-02 9.50768E-11 3.70052E-13 7.28360E-03
 -1        88-4.14341E-03 2.89996E-14 1.30555E-02 1.57977E-07-4.59416E-09 2.28224E-03
 -1        89-2.39348E-03 4.11154E-15 9.60952E-03 7.40197E-08-1.26885E-08 1.17357E-03
 -1        90-2.39502E-03 4.11154E-15 9.60938E-03 7.40196E-08-1.26885E-08 1.17339E-03
 -1        91-1.89676E-03 3.00299E-14 6.36514E-03 1.38770E-07-2.65762E-08 1.14002E-03
 -1        92-1.89876E-03 3.00299E-14 6.36512E-03 1.38769E-07-2.65762E-08 1.14011E-03
 -1        93-1.30521E-03 2.09739E-14 3.66446E-03 1.24469E-07-1.41413E-08 9.58744E-04
 -1        94-1.30733E-03 2.09739E-14 3.66461E-03 1.24469E-07-1.41413E-08 9.58700E-04
 -1        95-8.03940E-04 2.54042E-14 1.30239E-03 1.32611E-07-5.28238E-10 8.11808E-04
 -1        96-8.05974E-04 2.54042E-14 1.30256E-03 1.32611E-07-5.28252E-10 8.11787E-04
 -1        97-3.83727E-04 1.31367E-14-6.31010E-04 1.02473E-07 1.30627E-08 6.38720E-04
 -1        98-3.85588E-04 1.31367E-14-6.30951E-04 1.02472E-07 1.30627E-08 6.38601E-04
 -1        99-9.26053E-05 9.78846E-15-2.06208E-03 9.38687E-08 8.72925E-09 4.69387E-04
 -1       100-9.44594E-05 9.78846E-15-2.06209E-03 9.38685E-08 8.72924E-09 4.69329E-04
 -1       101 8.58762E-05 6.54888E-15-3.00636E-03 8.56597E-08 1.09367E-08 3.08483E-04
 -1       102 8.39854E-05 6.54888E-15-3.00632E-03 8.56595E-08 1.09367E-08 3.08502E-04
 -1       103 1.72143E-04 1.59840E-14-3.48810E-03 1.06872E-07 1.49628E-08 1.30025E-04
 -1       104 1.70393E-04 1.59840E-14-3.48823E-03 1.06872E-07 1.49628E-08 1.30069E-04
 -1       105 1.52257E-04 2.10236E-14-3.45079E-03 1.16508E-07-1.17542E-08-7.64592E-05
 -1       106 1.50687E-04 2.10236E-14-3.45111E-03 1.16508E-07-1.17542E-08-7.65375E-05
 -1       107 2.63843E-05 5.98507E-15-2.91695E-03 6.63385E-08-4.02560E-08-2.32332E-04
 -1       108 2.48650E-05 5.98507E-15-2.91720E-03 6.63384E-08-4.02560E-08-2.32328E-04
 -1       109-1.56039E-04 9.20518E-15-2.08191E-03 7.35665E-08-5.36262E-08-3.06770E-04
 -1       110-1.57736E-04 9.20518E-15-2.08194E-03 7.35664E-08-5.36263E-08-3.06541E-04
 -1       111-3.34023E-04 2.35544E-15-1.14500E-03 5.51165E-08-4.57296E-08-3.40035E-04
 -1       112-3.35686E-04 2.35544E-15-1.14458E-03 5.51164E-08-4.57296E-08-3.39737E-04
 -1       113-4.83625E-04 3.34545E-15-2.49817E-04 6.39007E-08 1.57256E-08-3.57049E-04
 -1       114-4.84972E-04 3.34545E-15-2.49123E-04 6.39007E-08 1.57256E-08-3.57197E-04
 -1       115-6.08152E-04 8.36387E-15 4.77950E-04 5.65623E-08 6.97642E-08-3.36825E-04
 -1       116-6.09617E-04 8.36387E-15 4.77802E-04 5.65622E-08 6.97642E-08-3.37373E-04
 -1       117-6.30808E-04-6.22850E-15 9.21969E-04 1.17209E-09-8.95781E-09-2.18849E-04
 -1       118-6.32148E-04-6.22850E-15 9.21740E-04 1.17210E-09-8.95781E-09-2.18691E-04
 -1       119-5.58403E-04-8.21478E-16 1.02029E-03-9.48908E-09 3.15236E-08-1.32034E-04
 -1       120-5.58956E-04-8.21478E-16 1.02032E-03-9.48908E-09 3.15236E-08-1.32603E-04
 -1       121-3.65529E-04 4.57167E-15 8.44188E-04-1.10969E-07-4.38872E-09-5.48960E-05
 -1       122-3.65758E-04 4.57167E-15 8.44775E-04-1.10968E-07-4.38888E-09-5.42009E-05
 -1       123-6.02791E-04-2.82895E-14 5.80154E-04 2.24092E-07 1.29161E-07-3.96382E-04
 -1       124-6.06905E-04-2.82895E-14 5.80630E-04 2.24092E-07 1.29161E-07-3.99068E-04
 -1       125 1.03046E-03 4.98241E-13 4.54289E-04-6.98196E-07 7.46386E-08-9.16735E-04
 -1       126 1.04166E-03 4.98241E-13 4.53637E-04-6.98202E-07 7.46439E-08-9.22822E-04
 -3
    1PSTEP                        32           8           2          
  100CL  108 1.80000E-01         126                     1    8           1
 -4  ERROR       1    1
 -5  STR(%)      1    1    0    0
 -1         1 7.04264E+01
 -1         2 7.04264E+01
 -1         3 7.23373E+01
 -1         4 7.23373E+01
 -1         5 7.04264E+01
 -1         6 7.04264E+01
 -1         7 7.23373E+01
 -1         8 7.23373E+01
 -1         9 7.52020E+01
 -1        10 7.52020E+01
 -1        11 7.52020E+01
 -1        12 7.52020E+01
 -1        13 8.92278E+01
 -1        14 8.92278E+01
 -1        15 8.92278E+01
 -1        16 8.92278E+01
 -1        17 8.92278E+01
 -1        18 8.92278E+01
 -1        19 8.92278E+01
 -1        20 8.92278E+01
 -1        21 5.24450E+01
 -1        22 2.97927E+01
 -1        23 5.24450E+01
 -1        24 2.97927E+01
 -1        25 7.85291E+01
 -1        26 3.49197E+01
 -1        27 7.85291E+01
 -1        28 3.49197E+01
 -1        29 8.87146E+01
 -1        30 4.00132E+01
 -1        31 8.87146E+01
 -1        32 4.00132E+01
 -1        33 8.87146E+01
 -1        34 4.14586E+01
 -1        35 8.87146E+01
 -1        36 4.14586E+01
 -1        37 8.72560E+01
 -1        38 4.14586E+01
 -1        39 8.72560E+01
 -1        40 4.14586E+01
 -1        41 8.79803E+01
 -1        42 4.10539E+01
 -1        43 8.79803E+01
 -1        44 4.10539E+01
 -1        45 9.11945E+01
 -1        46 4.04039E+01
 -1        47 9.11945E+01
 -1        48 4.04039E+01
 -1        49 1.05412E+02
 -1        50 3.79167E+01
 -1        51 1.05412E+02
 -1        52 3.79167E+01
 -1        53 1.05412E+02
 -1        54 3.39425E+01
 -1        55 1.05412E+02
 -1        56 3.39425E+01
 -1        57 9.14649E+01
 -1        58 2.84602E+01
 -1        59 9.14649E+01
 -1        60 2.84602E+01
 -1        61 5.86794E+01
 -1        62 2.09127E+01
 -1        63 5.86794E+01
 -1        64 2.09127E+01
 -1        65 2.83088E+01
 -1        66 1.21751E+01
 -1        67 2.83088E+01
 -1        68 1.21751E+01
 -1        69 7.66799E+00
 -1        70 6.72838E+00
 -1        71 7.66799E+00
 -1        72 6.72838E+00
 -1        73 1.14729E+01
 -1        74 7.99557E+00
 -1        75 1.14729E+01
 -1        76 7.99557E+00
 -1        77 6.69208E+01
 -1        78 6.69208E+01
 -1        79 6.69208E+01
 -1        80 6.69208E+01
 -1        81 6.69208E+01
 -1        82 6.69208E+01
 -1        83 6.69208E+01
 -1        84 6.69208E+01
 -1        85 5.96417E+01
 -1        86 5.96417E+01
 -1        87 5.96417E+01
 -1        88 5.96417E+01
 -1        89 5.17146E+01
 -1        90 5.17146E+01
 -1        91 4.80529E+01
 -1        92 4.80529E+01
 -1        93 3.69182E+01
 -1        94 3.69182E+01
 -1        95 5.24450E+01
 -1        96 5.24450E+01
 -1        97 7.85291E+01
 -1        98 7.85291E+01
 -1        99 8.87146E+01
 -1       100 8.87146E+01
 -1       101 8.87146E+01
 -1       102 8.87146E+01
 -1       103 8.72560E+01
 -1       104 8.72560E+01
 -1       105 8.79803E+01
 -1       106 8.79803E+01
 -1       107 9.11945E+01
 -1       108 9.11945E+01
 -1       109 1.05412E+02
 -1       110 1.05412E+02
 -1       111 1.05412E+02
 -1       112 1.05412E+02
 -1       113 9.14649E+01
 -1       114 9.14649E+01
 -1       115 5.86794E+01
 -1       116 5.86794E+01
 -1       117 2.83088E+01
 -1       118 2.83088E+01
 -1       119 7.66799E+00
 -1       120 7.66799E+00
 -1       121 1.14729E+01
 -1       122 1.14729E+01
 -1       123 5.66585E+01
 -1       124 5.66585E+01
 -1       125 5.66585E+01
 -1       126 5.66585E+01
 -3
    1PSTEP                        33           9           2          
  100CL  109 1.90000E-01         126                     1    9           1
 -4  DISP        4    1
 -5  D1          1    2    1    0
 -5  D2          1    2    2    0
 -5  D3          1    2    3    0
 -5  ALL         1    2    0    0    1ALL
 -1         1 0.00000E+00 0.00000E+00 0.00000E+00
 -1         2 0.00000E+00 0.00000E+00 0.00000E+00
 -1         3 5.88933E-04 0.00000E+00 5.43659E-05
 -1         4 7.35716E-04 0.00000E+00-6.74251E-04
 -1         5 0.00000E+00 0.00000E+00 0.00000E+00
 -1         6 0.00000E+00 0.00000E+00 0.00000E+00
 -1         7 5.88938E-04 0.00000E+00 5.43669E-05
 -1         8 7.35665E-04 0.00000E+00-6.74256E-04
 -1         9 1.87600E-03 0.00000E+00 1.17063E-04
 -1        10 1.91199E-03 0.00000E+00-1.15803E-03
 -1        11 1.87601E-03 0.00000E+00 1.17055E-04
 -1        12 1.91200E-03 0.00000E+00-1.15804E-03
 -1        13 3.52356E-03 0.00000E+00 1.72068E-04
 -1        14 3.52295E-03 0.00000E+00-1.44348E-03
 -1        15 3.52359E-03 0.00000E+00 1.72060E-04
 -1        16 3.52296E-03 0.00000E+00-1.44349E-03
 -1        17 5.40657E-03 0.00000E+00 2.21292E-04
 -1        18 5.36640E-03 0.00000E+00-1.58247E-03
 -1        19 5.40659E-03 0.00000E+00 2.21278E-04
 -1        20 5.36641E-03 0.00000E+00-1.58247E-03
 -1        21 7.39589E-03 0.00000E+00 2.69079E-04
 -1        22 7.32555E-03 0.00000E+00-1.58951E-03
 -1        23 7.39591E-03 0.00000E+00 2.69062E-04
 -1        24 7.32555E-03 0.00000E+00-1.58952E-03
 -1        25 9.35749E-03 0.00000E+00 3.19127E-04
 -1        26 9.26635E-03 0.00000E+00-1.47561E-03
 -1        27 9.35750E-03 0.00000E+00 3.19117E-04
 -1        28 9.26635E-03 0.00000E+00-1.47562E-03
 -1        29 1.11716E-02 0.00000E+00 3.73086E-04
 -1        30 1.10701E-02 0.00000E+00-1.26381E-03
 -1        31 1.11716E-02 0.00000E+00 3.73082E-04
 -1        32 1.10701E-02 0.00000E+00-1.26383E-03
 -1        33 1.27661E-02 0.00000E+00 4.31613E-04
 -1        34 1.26609E-02 0.00000E+00-9.80625E-04
 -1        35 1.27661E-02 0.00000E+00 4.31611E-04
 -1        36 1.26609E-02 0.00000E+00-9.80639E-04
 -1        37 1.40863E-02 0.00000E+00 4.95728E-04
 -1        38 1.39821E-02 0.00000E+00-6.48166E-04
 -1        39 1.40863E-02 0.00000E+00 4.95730E-04
 -1        40 1.39821E-02 0.00000E+00-6.48159E-04
 -1        41 1.50987E-02 0.00000E+00 5.65977E-04
 -1        42 1.49993E-02 0.00000E+00-2.90342E-04
 -1        43 1.50987E-02 0.00000E+00 5.65983E-04
 -1        44 1.49993E-02 0.00000E+00-2.90331E-04
 -1        45 1.57978E-02 0.00000E+00 6.42126E-04
 -1        46 1.57063E-02 0.00000E+00 6.69981E-05
 -1        47 1.57978E-02 0.00000E+00 6.42134E-04
 -1        48 1.57063E-02 0.00000E+00 6.70093E-05
 -1        49 1.62042E-02 0.00000E+00 7.22654E-04
 -1        50 1.61233E-02 0.00000E+00 3.98969E-04
 -1        51 1.62042E-02 0.00000E+00 7.22656E-04
 -1        52 1.61233E-02 0.00000E+00 3.98963E-04
 -1        53 1.63696E-02 0.00000E+00 8.05308E-04
 -1        54 1.62998E-02 0.00000E+00 6.90482E-04
 -1        55 1.63696E-02 0.00000E+00 8.05290E-04
 -1        56 1.62998E-02 0.00000E+00 6.90435E-04
 -1        57 1.63426E-02 0.00000E+00 8.88304E-04
 -1        58 1.62839E-02 0.00000E+00 9.35458E-04
 -1        59 1.63426E-02 0.00000E+00 8.88295E-04
 -1        60 1.62838E-02 0.00000E+00 9.35435E-04
 -1        61 1.61766E-02 0.00000E+00 9.68097E-04
 -1        62 1.61315E-02 0.00000E+00 1.12630E-03
 -1        63 1.61766E-02 0.00000E+00 9.68105E-04
 -1        64 1.61314E-02 0.00000E+00 1.12631E-03
 -1        65 1.59472E-02 0.00000E+00 1.04143E-03
 -1        66 1.59122E-02 0.00000E+00 1.27031E-03
 -1        67 1.59473E-02 0.00000E+00 1.04142E-03
 -1        68 1.59122E-02 0.00000E+00 1.27028E-03
 -1        69 1.56774E-02 0.00000E+00 1.10728E-03
 -1        70 1.56482E-02 0.00000E+00 1.38933E-03
 -1        71 1.56774E-02 0.00000E+00 1.10730E-03
 -1        72 1.56481E-02 0.00000E+00 1.38936E-03
 -1        73 1.53623E-02 0.00000E+00 1.15989E-03
 -1        74 1.53350E-02 0.00000E+00 1.49334E-03
 -1        75 1.53624E-02 0.00000E+00 1.15992E-03
 -1        76 1.53350E-02 0.00000E+00 1.49333E-03
 -1        77 1.49814E-02 0.00000E+00 1.19989E-03
 -1        78 1.49804E-02 0.00000E+00 1.57277E-03
 -1        79 1.49814E-02 0.00000E+00 1.19990E-03
 -1        80 1.49802E-02 0.00000E+00 1.57279E-03
 -1        81 1.45839E-02 0.00000E+00 1.21578E-03
 -1        82 1.45294E-02 0.00000E+00 1.63614E-03
 -1        83 1.45839E-02 0.00000E+00 1.21580E-03
 -1        84 1.45296E-02 0.00000E+00 1.63609E-03
 -1        85 0.00000E+00 0.00000E+00 0.00000E+00
 -1        86 8.13501E-04 0.00000E+00 7.91365E-04
 -1        87 0.00000E+00 0.00000E+00 0.00000E+00
 -1        88 8.13405E-04 0.00000E+00 7.91363E-04
 -1        89 2.01837E-03 0.00000E+00 1.39087E-03
 -1        90 2.01833E-03 0.00000E+00 1.39087E-03
 -1        91 3.64996E-03 0.00000E+00 1.78488E-03
 -1        92 3.64991E-03 0.00000E+00 1.78488E-03
 -1        93 5.50821E-03 0.00000E+00 2.02414E-03
 -1        94 5.50817E-03 0.00000E+00 2.02413E-03
 -1        95 7.47362E-03 0.00000E+00 2.12800E-03
 -1        96 7.47358E-03 0.00000E+00 2.12798E-03
 -1        97 9.40929E-03 0.00000E+00 2.11455E-03
 -1        98 9.40924E-03 0.00000E+00 2.11454E-03
 -1        99 1.11995E-02 0.00000E+00 2.01107E-03
 -1       100 1.11994E-02 0.00000E+00 2.01108E-03
 -1       101 1.27739E-02 0.00000E+00 1.84537E-03
 -1       102 1.27739E-02 0.00000E+00 1.84539E-03
 -1       103 1.40794E-02 0.00000E+00 1.64122E-03
 -1       104 1.40794E-02 0.00000E+00 1.64122E-03
 -1       105 1.50844E-02 0.00000E+00 1.42362E-03
 -1       106 1.50843E-02 0.00000E+00 1.42362E-03
 -1       107 1.57837E-02 0.00000E+00 1.21762E-03
 -1       108 1.57837E-02 0.00000E+00 1.21762E-03
 -1       109 1.61960E-02 0.00000E+00 1.04543E-03
 -1       110 1.61960E-02 0.00000E+00 1.04542E-03
 -1       111 1.63699E-02 0.00000E+00 9.18360E-04
 -1       112 1.63698E-02 0.00000E+00 9.18382E-04
 -1       113 1.63526E-02 0.00000E+00 8.37347E-04
 -1       114 1.63526E-02 0.00000E+00 8.37360E-04
 -1       115 1.61945E-02 0.00000E+00 8.03554E-04
 -1       116 1.61945E-02 0.00000E+00 8.03518E-04
 -1       117 1.59677E-02 0.00000E+00 8.06500E-04
 -1       118 1.59677E-02 0.00000E+00 8.06501E-04
 -1       119 1.56974E-02 0.00000E+00 8.20328E-04
 -1       120 1.56974E-02 0.00000E+00 8.20322E-04
 -1       121 1.53721E-02 0.00000E+00 8.27547E-04
 -1       122 1.53721E-02 0.00000E+00 8.27546E-04
 -1       123 1.50066E-02 0.00000E+00 8.28156E-04
 -1       124 1.50065E-02 0.00000E+00 8.28161E-04
 -1       125 1.45337E-02 0.00000E+00 8.36730E-04
 -1       126 1.45340E-02 0.00000E+00 8.36709E-04
 -3
    1PSTEP                        34           9           2          
  100CL  109 1.90000E-01         126                     1    9           1
 -4  STRESS      6    1
 -5  SXX         1    4    1    1
 -5  SYY         1    4    2    2
 -5  SZZ         1    4    3    3
 -5  SXY         1    4    1    2
 -5  SYZ         1    4    2    3
 -5  SZX         1    4    3    1
 -1         1-3.04908E+03-3.10775E+03-7.10045E+03 2.60057E-05-6.35419E-05 2.16591E+03
 -1         2 3.01022E+02 2.66754E+02 5.79289E+02 2.28285E-06 6.02154E-06 1.81710E+03
 -1         3-5.40166E-01 1.60175E+02 5.30553E+02 2.50436E-03 5.51495E-04 6.36924E+02
 -1         4-9.60023E+02-1.92615E+03-5.36556E+03-2.61983E-02-2.66346E-03 6.51484E+02
 -1         5-3.04911E+03-3.10777E+03-7.10051E+03 2.59934E-05-6.35427E-05 2.16576E+03
 -1         6 3.01031E+02 2.66759E+02 5.79301E+02 2.28246E-06 6.02155E-06 1.81711E+03
 -1         7-3.21360E-01 1.60263E+02 5.30616E+02 2.50436E-03 5.51493E-04 6.36944E+02
 -1         8-9.60660E+02-1.92644E+03-5.36589E+03-2.61983E-02-2.66346E-03 6.51491E+02
 -1         9 1.39929E+01 2.01704E+02 6.53115E+02 8.54663E-03-4.10017E-03 6.03733E+02
 -1        10-1.10023E+03-1.44489E+03-3.67189E+03 8.49437E-03-7.19844E-03 3.25947E+02
 -1        11 1.42287E+01 2.01794E+02 6.53178E+02 8.54664E-03-4.10017E-03 6.03730E+02
 -1        12-1.10022E+03-1.44489E+03-3.67188E+03 8.49436E-03-7.19844E-03 3.26017E+02
 -1        13 1.73043E+01 2.12099E+02 6.91133E+02 1.27989E-02-4.13991E-03 4.77767E+02
 -1        14-5.42754E+02-7.24002E+02-1.85895E+03 4.07712E-03-2.30096E-03 3.19727E+02
 -1        15 1.75667E+01 2.12205E+02 6.91222E+02 1.27989E-02-4.13991E-03 4.77767E+02
 -1        16-5.42912E+02-7.24056E+02-1.85897E+03 4.07712E-03-2.30096E-03 3.19735E+02
 -1        17 1.63330E+01 2.19922E+02 7.20241E+02 9.98081E-03-7.06291E-03 4.23386E+02
 -1        18-2.29307E+02-2.05349E+02-4.52790E+02 7.16161E-03-1.64837E-03 2.95897E+02
 -1        19 1.66317E+01 2.20038E+02 7.20329E+02 9.98083E-03-7.06291E-03 4.23383E+02
 -1        20-2.29382E+02-2.05389E+02-4.52849E+02 7.16161E-03-1.64837E-03 2.95924E+02
 -1        21 9.69569E+00 2.23779E+02 7.40136E+02 1.04312E-02-8.77129E-03 3.74378E+02
 -1        22 5.88402E+01 2.56772E+02 8.02119E+02 2.17475E-03-5.20077E-03 2.96346E+02
 -1        23 9.94251E+00 2.23889E+02 7.40255E+02 1.04312E-02-8.77129E-03 3.74362E+02
 -1        24 5.86559E+01 2.56690E+02 8.02027E+02 2.17475E-03-5.20076E-03 2.96336E+02
 -1        25 5.00439E+00 2.23747E+02 7.43938E+02 4.33340E-03-5.50133E-03 3.00071E+02
 -1        26 2.97945E+02 6.41392E+02 1.85484E+03-3.73182E-03-2.91454E-03 2.68655E+02
 -1        27 5.23998E+00 2.23865E+02 7.44095E+02 4.33340E-03-5.50134E-03 3.00040E+02
 -1        28 2.97755E+02 6.41301E+02 1.85472E+03-3.73181E-03-2.91454E-03 2.68635E+02
 -1        29 2.37106E+00 2.19403E+02 7.30584E+02-3.52280E-03-2.05806E-03 2.18505E+02
 -1        30 4.85264E+02 9.30378E+02 2.64236E+03-1.01740E-02-8.69342E-03 2.23392E+02
 -1        31 2.62940E+00 2.19526E+02 7.30739E+02-3.52280E-03-2.05806E-03 2.18509E+02
 -1        32 4.85111E+02 9.30303E+02 2.64226E+03-1.01740E-02-8.69341E-03 2.23388E+02
 -1        33-7.46694E-01 2.13233E+02 7.11796E+02 2.00152E-02-8.18348E-04 1.46990E+02
 -1        34 6.11576E+02 1.12540E+03 3.17615E+03 7.63702E-03-7.24776E-03 1.72842E+02
 -1        35-5.29184E-01 2.13335E+02 7.11921E+02 2.00152E-02-8.18346E-04 1.47004E+02
 -1        36 6.11380E+02 1.12535E+03 3.17617E+03 7.63701E-03-7.24776E-03 1.72845E+02
 -1        37-2.44974E+00 2.09741E+02 7.01013E+02 1.59270E-02 1.33738E-03 7.48305E+01
 -1        38 6.82377E+02 1.23605E+03 3.48061E+03 2.41117E-03 3.89642E-03 1.11100E+02
 -1        39-2.26265E+00 2.09830E+02 7.01125E+02 1.59270E-02 1.33738E-03 7.48014E+01
 -1        40 6.82148E+02 1.23598E+03 3.48062E+03 2.41117E-03 3.89642E-03 1.11070E+02
 -1        41-2.76262E+00 2.10286E+02 7.02926E+02 5.50754E-03 3.13968E-03 2.19109E+00
 -1        42 6.97150E+02 1.26011E+03 3.54745E+03-8.24852E-03 5.60291E-03 4.24858E+01
 -1        43-2.59429E+00 2.10365E+02 7.03021E+02 5.50754E-03 3.13968E-03 2.23657E+00
 -1        44 6.96871E+02 1.26000E+03 3.54735E+03-8.24851E-03 5.60291E-03 4.25175E+01
 -1        45-2.88642E+00 2.13274E+02 7.13434E+02 2.57901E-02 4.20005E-03-6.57370E+01
 -1        46 6.57872E+02 1.19875E+03 3.37833E+03 7.51718E-03 5.82327E-03-2.52345E+01
 -1        47-2.80332E+00 2.13303E+02 7.13451E+02 2.57901E-02 4.20006E-03-6.56990E+01
 -1        48 6.57453E+02 1.19855E+03 3.37807E+03 7.51717E-03 5.82327E-03-2.52086E+01
 -1        49 1.83512E+00 2.18143E+02 7.25547E+02 1.05310E-02 1.10410E-03-1.12960E+02
 -1        50 5.85041E+02 1.07501E+03 3.03115E+03-3.27984E-03-3.47768E-03-7.60364E+01
 -1        51 1.91210E+00 2.18142E+02 7.25468E+02 1.05310E-02 1.10410E-03-1.13027E+02
 -1        52 5.84619E+02 1.07475E+03 3.03071E+03-3.27984E-03-3.47768E-03-7.61211E+01
 -1        53 8.19151E+00 2.21897E+02 7.32533E+02 4.08055E-03-8.81276E-03-1.37357E+02
 -1        54 4.89279E+02 9.17020E+02 2.59199E+03-1.13139E-02-2.42049E-02-1.05183E+02
 -1        55 8.30928E+00 2.21933E+02 7.32535E+02 4.08055E-03-8.81277E-03-1.37440E+02
 -1        56 4.88922E+02 9.16847E+02 2.59177E+03-1.13139E-02-2.42048E-02-1.05355E+02
 -1        57 8.14411E+00 2.17982E+02 7.20106E+02 1.77511E-02-4.55791E-03-1.46892E+02
 -1        58 3.75405E+02 7.35343E+02 2.09225E+03-2.98129E-02-1.15302E-02-1.15834E+02
 -1        59 7.93719E+00 2.17927E+02 7.20129E+02 1.77511E-02-4.55791E-03-1.46939E+02
 -1        60 3.74549E+02 7.35055E+02 2.09215E+03-2.98128E-02-1.15301E-02-1.15941E+02
 -1        61 1.97185E+01 2.10980E+02 6.85179E+02 6.49421E-03 4.26500E-03-1.13185E+02
 -1        62 2.91659E+02 5.67061E+02 1.60842E+03-3.30504E-02 6.85702E-03-8.79093E+01
 -1        63 1.95317E+01 2.10903E+02 6.85109E+02 6.49420E-03 4.26500E-03-1.13092E+02
 -1        64 2.90808E+02 5.66685E+02 1.60801E+03-3.30503E-02 6.85700E-03-8.78147E+01
 -1        65 3.17733E+01 1.98533E+02 6.31497E+02 2.33186E-02-3.43268E-03-5.60469E+01
 -1        66 2.38018E+02 4.50152E+02 1.26862E+03-3.51310E-03-1.64156E-02-4.18516E+01
 -1        67 3.18360E+01 1.98584E+02 6.31604E+02 2.33186E-02-3.43268E-03-5.60598E+01
 -1        68 2.37494E+02 4.49947E+02 1.26846E+03-3.51311E-03-1.64156E-02-4.20196E+01
 -1        69 2.18613E+01 1.67693E+02 5.38244E+02 1.92563E-02 1.36975E-02-2.60042E+01
 -1        70 2.13028E+02 3.87422E+02 1.08284E+03-6.26977E-02 1.47719E-02-2.25644E+01
 -1        71 2.12530E+01 1.67474E+02 5.38127E+02 1.92563E-02 1.36975E-02-2.59713E+01
 -1        72 2.11370E+02 3.86745E+02 1.08224E+03-6.26973E-02 1.47719E-02-2.26268E+01
 -1        73 3.26373E+01 1.38989E+02 4.31462E+02 1.66137E-02 1.31932E-02-4.79491E+01
 -1        74 1.46750E+02 3.07692E+02 8.81893E+02-2.52879E-02-3.49120E-03-3.87960E+00
 -1        75 3.21178E+01 1.38751E+02 4.31188E+02 1.66137E-02 1.31932E-02-4.79509E+01
 -1        76 1.45853E+02 3.07294E+02 8.81464E+02-2.52879E-02-3.49115E-03-4.12493E+00
 -1        77 1.06272E+01 8.19472E+01 2.62659E+02 2.15458E-02 7.75379E-03-5.29244E+01
 -1        78 3.42877E+02 3.38756E+02 7.88696E+02-1.10432E-01 9.80807E-03-9.40907E+01
 -1        79 1.00450E+01 8.16837E+01 2.62364E+02 2.15457E-02 7.75382E-03-5.30455E+01
 -1        80 3.39995E+02 3.37466E+02 7.87268E+02-1.10431E-01 9.80789E-03-9.37152E+01
 -1        81 7.54215E+01 7.80931E+01 1.85745E+02-3.05411E-02 7.90657E-03 6.42311E+00
 -1        82-2.63736E+02 5.86633E+01 4.60683E+02 9.67843E-02-2.60341E-02-9.72239E+01
 -1        83 7.47694E+01 7.78175E+01 1.85471E+02-3.05410E-02 7.90635E-03 6.06339E+00
 -1        84-2.61430E+02 5.94679E+01 4.61055E+02 9.67845E-02-2.60336E-02-9.61747E+01
 -1        85 3.72672E+03 3.65390E+03 8.75207E+03-9.30937E-05-1.19261E-04 2.63181E+03
 -1        86 9.41196E+02 2.24957E+03 6.71154E+03-4.91289E-02-1.33822E-03 9.04268E+02
 -1        87 3.72668E+03 3.65388E+03 8.75204E+03-9.30528E-05-1.19261E-04 2.63151E+03
 -1        88 9.42280E+02 2.25004E+03 6.71203E+03-4.91291E-02-1.33821E-03 9.04229E+02
 -1        89 1.05772E+03 1.80333E+03 5.04434E+03-1.56925E-02 3.52759E-03 5.05876E+02
 -1        90 1.05823E+03 1.80355E+03 5.04456E+03-1.56925E-02 3.52759E-03 5.05910E+02
 -1        91 5.52137E+02 1.13874E+03 3.28572E+03-2.23560E-02-1.54268E-03 4.57165E+02
 -1        92 5.52832E+02 1.13901E+03 3.28595E+03-2.23561E-02-1.54267E-03 4.57119E+02
 -1        93 2.42938E+02 6.41395E+02 1.91203E+03-2.35274E-02-4.42821E-03 3.68823E+02
 -1        94 2.43618E+02 6.41674E+02 1.91228E+03-2.35275E-02-4.42821E-03 3.68804E+02
 -1        95-5.80327E+01 1.85024E+02 6.79311E+02-2.09749E-02-6.35297E-03 2.97011E+02
 -1        96-5.73859E+01 1.85296E+02 6.79568E+02-2.09750E-02-6.35297E-03 2.96989E+02
 -1        97-3.03902E+02-1.99724E+02-3.60489E+02-2.39121E-02-6.92314E-03 2.06820E+02
 -1        98-3.03261E+02-1.99419E+02-3.60115E+02-2.39122E-02-6.92314E-03 2.06791E+02
 -1        99-4.91304E+02-4.95099E+02-1.15543E+03-3.21415E-02 5.35280E-03 1.25082E+02
 -1       100-4.90632E+02-4.94772E+02-1.15502E+03-3.21416E-02 5.35281E-03 1.25073E+02
 -1       101-6.20729E+02-7.01541E+02-1.70993E+03-1.06975E-02 7.19795E-03 6.47997E+01
 -1       102-6.20104E+02-7.01288E+02-1.70972E+03-1.06975E-02 7.19796E-03 6.48003E+01
 -1       103-6.93429E+02-8.19419E+02-2.02678E+03-1.39753E-02-1.28313E-03 1.44429E+01
 -1       104-6.92834E+02-8.19181E+02-2.02659E+03-1.39753E-02-1.28313E-03 1.44173E+01
 -1       105-7.08786E+02-8.43722E+02-2.09168E+03-2.29759E-02 8.70758E-05-2.87872E+01
 -1       106-7.08188E+02-8.43466E+02-2.09143E+03-2.29760E-02 8.70677E-05-2.87334E+01
 -1       107-6.70695E+02-7.78172E+02-1.91333E+03-9.89514E-04-1.94639E-03-6.73657E+01
 -1       108-6.70143E+02-7.77943E+02-1.91312E+03-9.89517E-04-1.94639E-03-6.73114E+01
 -1       109-5.87753E+02-6.44357E+02-1.55397E+03-1.62700E-02-3.01885E-03-9.39650E+01
 -1       110-5.87132E+02-6.44058E+02-1.55359E+03-1.62701E-02-3.01885E-03-9.40129E+01
 -1       111-4.81018E+02-4.80613E+02-1.11815E+03-2.49167E-02 1.09340E-02-1.07264E+02
 -1       112-4.80365E+02-4.80307E+02-1.11778E+03-2.49168E-02 1.09340E-02-1.07346E+02
 -1       113-3.71177E+02-3.10671E+02-6.63552E+02-4.32390E-03 6.65033E-03-1.12585E+02
 -1       114-3.70845E+02-3.10605E+02-6.63663E+02-4.32390E-03 6.65033E-03-1.12621E+02
 -1       115-2.58640E+02-1.50931E+02-2.44571E+02-1.47018E-02-1.85894E-02-8.58504E+01
 -1       116-2.58221E+02-1.50765E+02-2.44440E+02-1.47018E-02-1.85894E-02-8.57170E+01
 -1       117-1.71843E+02-5.01275E+01 4.62952E+00-5.52349E-03 7.40594E-04-4.24167E+01
 -1       118-1.71170E+02-4.97999E+01 5.04838E+00-5.52351E-03 7.40594E-04-4.23892E+01
 -1       119-1.52839E+02-3.56327E+01 3.40825E+01 2.56739E-03-3.39576E-03-3.38778E+01
 -1       120-1.52496E+02-3.54894E+01 3.42174E+01 2.56739E-03-3.39576E-03-3.36932E+01
 -1       121-6.90815E+01-1.63840E+01 1.43877E+01 2.17122E-02-8.33683E-04-4.04297E+01
 -1       122-6.91563E+01-1.64009E+01 1.44074E+01 2.17123E-02-8.33696E-04-4.05238E+01
 -1       123-2.24260E+02-8.04734E+01-4.34897E+01-5.66501E-02 2.50012E-03-1.46727E+02
 -1       124-2.22678E+02-7.98193E+01-4.28954E+01-5.66500E-02 2.49998E-03-1.46280E+02
 -1       125 6.12607E+02 2.88334E+02 3.50478E+02 1.59675E-01-1.07399E-02-2.88781E+02
 -1       126 6.08451E+02 2.86495E+02 3.48480E+02 1.59673E-01-1.07388E-02-2.87372E+02
 -3
    1PSTEP                        35           9           2          
  100CL  109 1.90000E-01         126                     1    9           1
 -4  TOSTRAIN    6    1
 -5  EXX         1    4    1    1
 -5  EYY         1    4    2    2
 -5  EZZ         1    4    3    3
 -5  EXY         1    4    1    2
 -5  EYZ         1    4    2    3
 -5  EZX         1    4    3    1
 -1         1-1.84649E-05-1.94041E-15-1.33040E-02 2.14617E-11 4.51438E-14 7.35701E-03
 -1         2-1.90885E-05 1.00774E-15 1.13813E-03 6.43630E-12 6.60098E-14 5.88919E-03
 -1         3-6.77827E-04-5.40348E-15 1.35700E-03 8.06013E-09 1.88690E-09 2.03592E-03
 -1         4 3.03167E-03 8.76048E-15-1.13331E-02-8.50100E-08-1.00075E-08 2.38609E-03
 -1         5-1.84647E-05-1.94041E-15-1.33041E-02 2.14457E-11 4.51441E-14 7.35650E-03
 -1         6-1.90875E-05 1.00774E-15 1.13815E-03 6.43570E-12 6.60096E-14 5.88924E-03
 -1         7-6.77380E-04-5.40348E-15 1.35692E-03 8.06014E-09 1.88690E-09 2.03599E-03
 -1         8 3.03055E-03 8.76048E-15-1.13332E-02-8.50100E-08-1.00075E-08 2.38611E-03
 -1         9-7.43753E-04 8.90449E-16 1.60777E-03 2.81320E-08-1.25761E-08 1.89800E-03
 -1        10 1.03804E-03 6.75574E-16-7.26988E-03 2.82852E-08-2.29977E-08 1.29334E-03
 -1        11-7.43276E-04 8.90449E-16 1.60768E-03 2.81320E-08-1.25761E-08 1.89800E-03
 -1        12 1.03804E-03 6.75574E-16-7.26986E-03 2.82852E-08-2.29977E-08 1.29357E-03
 -1        13-7.49821E-04 1.48351E-15 1.66624E-03 4.20368E-08-1.20830E-08 1.47174E-03
 -1        14 5.07231E-04 1.33999E-16-3.63748E-03 1.35284E-08-7.08542E-09 1.18484E-03
 -1        15-7.49306E-04 1.48351E-15 1.66618E-03 4.20368E-08-1.20830E-08 1.47176E-03
 -1        16 5.06888E-04 1.33999E-16-3.63737E-03 1.35284E-08-7.08542E-09 1.18485E-03
 -1        17-7.67221E-04 1.08686E-15 1.72014E-03 3.32988E-08-2.17220E-08 1.28360E-03
 -1        18-1.53177E-04 9.54757E-16-7.35385E-04 2.34769E-08-4.53139E-09 9.86387E-04
 -1        19-7.66625E-04 1.08686E-15 1.72005E-03 3.32989E-08-2.17220E-08 1.28362E-03
 -1        20-1.53295E-04 9.54757E-16-7.35442E-04 2.34769E-08-4.53139E-09 9.86472E-04
 -1        21-7.88778E-04 1.95842E-15 1.75915E-03 3.50094E-08-2.71669E-08 1.11954E-03
 -1        22-7.15066E-04 2.55996E-16 1.83014E-03 7.72287E-09-1.65886E-08 8.66530E-04
 -1        23-7.88327E-04 1.95842E-15 1.75917E-03 3.50095E-08-2.71669E-08 1.11950E-03
 -1        24-7.15394E-04 2.55996E-16 1.83011E-03 7.72286E-09-1.65886E-08 8.66488E-04
 -1        25-7.84274E-04-6.88150E-16 1.75394E-03 1.47577E-08-1.73277E-08 8.82076E-04
 -1        26-1.17725E-03 3.98488E-17 3.96420E-03-1.17675E-08-9.85267E-09 6.82696E-04
 -1        27-7.83883E-04-6.88150E-16 1.75406E-03 1.47577E-08-1.73277E-08 8.81984E-04
 -1        28-1.17757E-03 3.98488E-17 3.96412E-03-1.17674E-08-9.85266E-09 6.82622E-04
 -1        29-7.57826E-04-2.42530E-15 1.70749E-03-1.12063E-08-7.04380E-09 6.27975E-04
 -1        30-1.49362E-03 2.77490E-15 5.53936E-03-3.20814E-08-2.91086E-08 4.88197E-04
 -1        31-7.57388E-04-2.42530E-15 1.70759E-03-1.12063E-08-7.04380E-09 6.27998E-04
 -1        32-1.49387E-03 2.77490E-15 5.53929E-03-3.20813E-08-2.91086E-08 4.88177E-04
 -1        33-7.31857E-04 5.39626E-15 1.65358E-03 6.51285E-08-8.22351E-10 4.09488E-04
 -1        34-1.70436E-03 8.46571E-16 6.60092E-03 2.54538E-08-2.26534E-08 3.20031E-04
 -1        35-7.31491E-04 5.39626E-15 1.65366E-03 6.51285E-08-8.22327E-10 4.09542E-04
 -1        36-1.70484E-03 8.46571E-16 6.60117E-03 2.54537E-08-2.26534E-08 3.20019E-04
 -1        37-7.12935E-04 3.28081E-15 1.61871E-03 5.16721E-08 5.50996E-09 1.89672E-04
 -1        38-1.82224E-03-6.78147E-16 7.20194E-03 7.51253E-09 1.27003E-08 1.49701E-04
 -1        39-7.12618E-04 3.28081E-15 1.61878E-03 5.16721E-08 5.50995E-09 1.89583E-04
 -1        40-1.82277E-03-6.78147E-16 7.20218E-03 7.51253E-09 1.27003E-08 1.49586E-04
 -1        41-7.05708E-04-1.85884E-15 1.61367E-03 1.77375E-08 1.05155E-08-3.20431E-05
 -1        42-1.84294E-03 7.59091E-16 7.32777E-03-2.71106E-08 1.75886E-08-2.06698E-05
 -1        43-7.05422E-04-1.85884E-15 1.61372E-03 1.77375E-08 1.05155E-08-3.18921E-05
 -1        44-1.84348E-03 7.59091E-16 7.32781E-03-2.71105E-08 1.75886E-08-2.05784E-05
 -1        45-7.09539E-04 1.13885E-14 1.63093E-03 8.36875E-08 1.46108E-08-2.39236E-04
 -1        46-1.76488E-03-7.02866E-17 6.98172E-03 2.41693E-08 1.90397E-08-1.80988E-04
 -1        47-7.09374E-04 1.13885E-14 1.63089E-03 8.36875E-08 1.46108E-08-2.39111E-04
 -1        48-1.76559E-03-7.02866E-17 6.98155E-03 2.41693E-08 1.90397E-08-1.80913E-04
 -1        49-7.07155E-04 1.38556E-16 1.65054E-03 3.42199E-08 3.77303E-09-3.80482E-04
 -1        50-1.59628E-03-1.42366E-15 6.27291E-03-1.06034E-08-1.13161E-08-2.94148E-04
 -1        51-7.06901E-04 1.38556E-16 1.65028E-03 3.42199E-08 3.77301E-09-3.80696E-04
 -1        52-1.59682E-03-1.42366E-15 6.27232E-03-1.06034E-08-1.13161E-08-2.94420E-04
 -1        53-6.98831E-04-1.32840E-15 1.65944E-03 1.33111E-08-2.85979E-08-4.49629E-04
 -1        54-1.39380E-03 1.18103E-14 5.38120E-03-3.66406E-08-7.82478E-08-3.52762E-04
 -1        55-6.98564E-04-1.32840E-15 1.65933E-03 1.33111E-08-2.85979E-08-4.49899E-04
 -1        56-1.39440E-03 1.18103E-14 5.38104E-03-3.66405E-08-7.82478E-08-3.53318E-04
 -1        57-6.86918E-04 1.59624E-15 1.63132E-03 5.76649E-08-1.48537E-08-4.72965E-04
 -1        58-1.17373E-03 1.23292E-14 4.36935E-03-9.69500E-08-3.71927E-08-3.67118E-04
 -1        59-6.87415E-04 1.59624E-15 1.63158E-03 5.76649E-08-1.48537E-08-4.73117E-04
 -1        60-1.17559E-03 1.23292E-14 4.36995E-03-9.69498E-08-3.71927E-08-3.67463E-04
 -1        61-6.25531E-04-3.79935E-15 1.54010E-03 2.11596E-08 1.37840E-08-3.59284E-04
 -1        62-8.98028E-04 1.56208E-14 3.36096E-03-1.07311E-07 2.25358E-08-2.69618E-04
 -1        63-6.25886E-04-3.79935E-15 1.54012E-03 2.11595E-08 1.37840E-08-3.58982E-04
 -1        64-8.99570E-04 1.56208E-14 3.36086E-03-1.07311E-07 2.25358E-08-2.69310E-04
 -1        65-5.44302E-04 8.27953E-15 1.40512E-03 7.57375E-08-1.14899E-08-1.72404E-04
 -1        66-6.91127E-04-6.50790E-15 2.64538E-03-1.16818E-08-5.31248E-08-1.19754E-04
 -1        67-5.44265E-04 8.27953E-15 1.40530E-03 7.57375E-08-1.14899E-08-1.72446E-04
 -1        68-6.92176E-04-6.50790E-15 2.64554E-03-1.16818E-08-5.31248E-08-1.20293E-04
 -1        69-4.75378E-04-6.91432E-16 1.20242E-03 6.28398E-08 4.40966E-08-7.47482E-05
 -1        70-5.67934E-04 5.45912E-14 2.24942E-03-2.03457E-07 4.90021E-08-5.70491E-05
 -1        71-4.76648E-04-6.91432E-16 1.20275E-03 6.28397E-08 4.40966E-08-7.46326E-05
 -1        72-5.71130E-04 5.45912E-14 2.24967E-03-2.03456E-07 4.90022E-08-5.72316E-05
 -1        73-3.48335E-04 8.03810E-15 9.50880E-04 5.42869E-08 4.24632E-08-1.46852E-04
 -1        74-5.23411E-04-6.43538E-15 1.85842E-03-8.22779E-08-1.07894E-08 3.27270E-06
 -1        75-3.49252E-04 8.03810E-15 9.50764E-04 5.42868E-08 4.24632E-08-1.46853E-04
 -1        76-5.25050E-04-6.43538E-15 1.85833E-03-8.22779E-08-1.07894E-08 2.48776E-06
 -1        77-2.34106E-04-1.23690E-14 5.89205E-04 7.02070E-08 2.46539E-08-1.65768E-04
 -1        78 8.04238E-06 1.29856E-13 1.46183E-03-3.58509E-07 3.45206E-08-2.93882E-04
 -1        79-2.35153E-04-1.23690E-14 5.89110E-04 7.02069E-08 2.46540E-08-1.66153E-04
 -1        80 2.89780E-06 1.29856E-13 1.46137E-03-3.58507E-07 3.45200E-08-2.92633E-04
 -1        81-1.00584E-05-4.19618E-14 3.49305E-04-9.90134E-08 2.64475E-08 2.42412E-05
 -1        82-1.05473E-03 3.57430E-14 1.30866E-03 3.13939E-07-8.70394E-08-2.95824E-04
 -1        83-1.12838E-05-4.19618E-14 3.49327E-04-9.90133E-08 2.64468E-08 2.30801E-05
 -1        84-1.04977E-03 3.57430E-14 1.30720E-03 3.13940E-07-8.70375E-08-2.92474E-04
 -1        85-1.97120E-05-6.98443E-15 1.60647E-02-1.27040E-10 1.88433E-14 8.13485E-03
 -1        86-4.38732E-03 3.66402E-14 1.42034E-02-1.59508E-07-6.52414E-09 2.57389E-03
 -1        87-1.97104E-05-6.98443E-15 1.60647E-02-1.26986E-10 1.88443E-14 8.13389E-03
 -1        88-4.38531E-03 3.66402E-14 1.42035E-02-1.59508E-07-6.52411E-09 2.57379E-03
 -1        89-2.52554E-03 1.34936E-15 1.03909E-02-5.12639E-08 9.98160E-09 1.27723E-03
 -1        90-2.52459E-03 1.34936E-15 1.03909E-02-5.12639E-08 9.98157E-09 1.27736E-03
 -1        91-2.00687E-03 6.15097E-15 6.96275E-03-7.24550E-08-7.27353E-09 1.17477E-03
 -1        92-2.00550E-03 6.15097E-15 6.96259E-03-7.24551E-08-7.27353E-09 1.17467E-03
 -1        93-1.38126E-03 8.08778E-15 4.16872E-03-7.58810E-08-1.70466E-08 9.89123E-04
 -1        94-1.37995E-03 8.08778E-15 4.16862E-03-7.58811E-08-1.70466E-08 9.89110E-04
 -1        95-8.62489E-04 6.61085E-15 1.66602E-03-6.73430E-08-2.31239E-08 8.69039E-04
 -1        96-8.61261E-04 6.61085E-15 1.66597E-03-6.73431E-08-2.31239E-08 8.69012E-04
 -1        97-3.91299E-04 9.90183E-15-4.73514E-04-7.68689E-08-2.53037E-08 6.76696E-04
 -1        98-3.90200E-04 9.90183E-15-4.73294E-04-7.68690E-08-2.53037E-08 6.76631E-04
 -1        99-2.20345E-05 1.82107E-14-2.12084E-03-1.05071E-07 1.40095E-08 4.77970E-04
 -1       100-2.09082E-05 1.82107E-14-2.12056E-03-1.05072E-07 1.40095E-08 4.77968E-04
 -1       101 2.40650E-04-9.56843E-16-3.27530E-03-3.54304E-08 2.25023E-08 3.12182E-04
 -1       102 2.41858E-04-9.56843E-16-3.27542E-03-3.54305E-08 2.25023E-08 3.12221E-04
 -1       103 3.96371E-04 7.26540E-16-3.93970E-03-4.53274E-08-5.24307E-09 1.47277E-04
 -1       104 3.97536E-04 7.26540E-16-3.93985E-03-4.53275E-08-5.24306E-09 1.47223E-04
 -1       105 4.31524E-04 7.26592E-15-4.07970E-03-7.47255E-08-9.67015E-10-1.64218E-05
 -1       106 4.32634E-04 7.26592E-15-4.07971E-03-7.47256E-08-9.67033E-10-1.62264E-05
 -1       107 3.45803E-04-3.83021E-15-3.71120E-03-3.11071E-09-6.35583E-09-1.73424E-04
 -1       108 3.46846E-04-3.83021E-15-3.71126E-03-3.11071E-09-6.35583E-09-1.73233E-04
 -1       109 1.81971E-04 2.47899E-15-2.96980E-03-5.28477E-08-1.02122E-08-2.86638E-04
 -1       110 1.83016E-04 2.47899E-15-2.96955E-03-5.28478E-08-1.02122E-08-2.86788E-04
 -1       111-3.85984E-06 1.02666E-14-2.07662E-03-8.10888E-08 3.54111E-08-3.45319E-04
 -1       112-2.72693E-06 1.02666E-14-2.07643E-03-8.10889E-08 3.54111E-08-3.45586E-04
 -1       113-2.00102E-04-2.54400E-15-1.14544E-03-1.40102E-08 2.16545E-08-3.67575E-04
 -1       114-1.99242E-04-2.54400E-15-1.14601E-03-1.40102E-08 2.16545E-08-3.67695E-04
 -1       115-3.53033E-04 6.91292E-15-3.01032E-04-4.80357E-08-6.02643E-08-2.78974E-04
 -1       116-3.52202E-04 6.91292E-15-3.01148E-04-4.80358E-08-6.02643E-08-2.78542E-04
 -1       117-3.97477E-04-2.88283E-15 1.80062E-04-1.79387E-08 2.49252E-09-1.35077E-04
 -1       118-3.96353E-04-2.88283E-15 1.80357E-04-1.79387E-08 2.49251E-09-1.34992E-04
 -1       119-3.82821E-04-2.10882E-15 2.28278E-04 8.28912E-09-1.10618E-08-1.06585E-04
 -1       120-3.82166E-04-2.10882E-15 2.28244E-04 8.28912E-09-1.10618E-08-1.05989E-04
 -1       121-1.73258E-04-8.16079E-17 1.02138E-04 7.05689E-08-3.18078E-09-1.29628E-04
 -1       122-1.73453E-04-8.16079E-17 1.02260E-04 7.05689E-08-3.18085E-09-1.29931E-04
 -1       123-4.76255E-04-2.37977E-14 1.27416E-04-1.84004E-07 9.48492E-09-4.72411E-04
 -1       124-4.73205E-04-2.37977E-14 1.27200E-04-1.84004E-07 9.48458E-09-4.70980E-04
 -1       125 1.03461E-03 2.88086E-13 2.16015E-04 5.18007E-07-3.87905E-08-9.42592E-04
 -1       126 1.02721E-03 2.88086E-13 2.15433E-04 5.18004E-07-3.87872E-08-9.37985E-04
 -3
    1PSTEP                        36           9           2          
  100CL  109 1.90000E-01         126                     1    9           1
 -4  ERROR       1    1
 -5  STR(%)      1    1    0    0
 -1         1 6.98934E+01
 -1         2 6.98934E+01
 -1         3 7.22646E+01
 -1         4 7.22646E+01
 -1         5 6.98934E+01
 -1         6 6.98934E+01
 -1         7 7.22646E+01
 -1         8 7.22646E+01
 -1         9 7.72904E+01
 -1        10 7.72904E+01
 -1        11 7.72904E+01
 -1        12 7.72904E+01
 -1        13 8.89074E+01
 -1        14 8.89074E+01
 -1        15 8.89074E+01
 -1        16 8.89074E+01
 -1        17 8.89074E+01
 -1        18 8.89074E+01
 -1        19 8.89074E+01
 -1        20 8.89074E+01
 -1        21 4.33073E+01
 -1        22 3.44757E+01
 -1        23 4.33073E+01
 -1        24 3.44757E+01
 -1        25 1.02366E+02
 -1        26 3.40015E+01
 -1        27 1.02366E+02
 -1        28 3.40015E+01
 -1        29 1.02366E+02
 -1        30 4.07953E+01
 -1        31 1.02366E+02
 -1        32 4.07953E+01
 -1        33 9.02171E+01
 -1        34 4.34280E+01
 -1        35 9.02171E+01
 -1        36 4.34280E+01
 -1        37 8.69505E+01
 -1        38 4.38755E+01
 -1        39 8.69505E+01
 -1        40 4.38755E+01
 -1        41 8.30418E+01
 -1        42 4.38755E+01
 -1        43 8.30418E+01
 -1        44 4.38755E+01
 -1        45 8.88849E+01
 -1        46 4.36421E+01
 -1        47 8.88849E+01
 -1        48 4.36421E+01
 -1        49 9.27961E+01
 -1        50 4.23848E+01
 -1        51 9.27961E+01
 -1        52 4.23848E+01
 -1        53 1.07014E+02
 -1        54 3.96041E+01
 -1        55 1.07014E+02
 -1        56 3.96041E+01
 -1        57 1.07014E+02
 -1        58 3.54116E+01
 -1        59 1.07014E+02
 -1        60 3.54116E+01
 -1        61 9.15605E+01
 -1        62 2.87859E+01
 -1        63 9.15605E+01
 -1        64 2.87859E+01
 -1        65 6.11786E+01
 -1        66 2.21426E+01
 -1        67 6.11786E+01
 -1        68 2.21426E+01
 -1        69 4.85403E+01
 -1        70 2.22418E+01
 -1        71 4.85403E+01
 -1        72 2.22418E+01
 -1        73 7.26465E+01
 -1        74 2.46588E+01
 -1        75 7.26465E+01
 -1        76 2.46588E+01
 -1        77 7.26465E+01
 -1        78 6.20893E+01
 -1        79 7.26465E+01
 -1        80 6.20893E+01
 -1        81 6.20893E+01
 -1        82 6.20893E+01
 -1        83 6.20893E+01
 -1        84 6.20893E+01
 -1        85 5.96616E+01
 -1        86 5.96616E+01
 -1        87 5.96616E+01
 -1        88 5.96616E+01
 -1        89 5.12694E+01
 -1        90 5.12694E+01
 -1        91 4.68740E+01
 -1        92 4.68740E+01
 -1        93 3.64059E+01
 -1        94 3.64059E+01
 -1        95 4.33073E+01
 -1        96 4.33073E+01
 -1        97 1.02366E+02
 -1        98 1.02366E+02
 -1        99 1.02366E+02
 -1       100 1.02366E+02
 -1       101 9.02171E+01
 -1       102 9.02171E+01
 -1       103 8.69505E+01
 -1       104 8.69505E+01
 -1       105 8.30418E+01
 -1       106 8.30418E+01
 -1       107 8.88849E+01
 -1       108 8.88849E+01
 -1       109 9.27961E+01
 -1       110 9.27961E+01
 -1       111 1.07014E+02
 -1       112 1.07014E+02
 -1       113 1.07014E+02
 -1       114 1.07014E+02
 -1       115 9.15605E+01
 -1       116 9.15605E+01
 -1       117 6.11786E+01
 -1       118 6.11786E+01
 -1       119 4.85403E+01
 -1       120 4.85403E+01
 -1       121 7.26465E+01
 -1       122 7.26465E+01
 -1       123 7.26465E+01
 -1       124 7.26465E+01
 -1       125 4.87370E+01
 -1       126 4.87370E+01
 -3
    1PSTEP                        37          10           2          
  100CL  110 2.00000E-01         126                     1   10           1
 -4  DISP        4    1
 -5  D1          1    2    1    0
 -5  D2          1    2    2    0
 -5  D3          1    2    3    0
 -5  ALL         1    2    0    0    1ALL
 -1         1 0.00000E+00 0.00000E+00 0.00000E+00
 -1         2 0.00000E+00 0.00000E+00 0.00000E+00
 -1         3 6.34058E-04 0.00000E+00 6.84048E-05
 -1         4 7.92799E-04 0.00000E+00-7.29538E-04
 -1         5 0.00000E+00 0.00000E+00 0.00000E+00
 -1         6 0.00000E+00 0.00000E+00 0.00000E+00
 -1         7 6.34040E-04 0.00000E+00 6.84184E-05
 -1         8 7.92811E-04 0.00000E+00-7.29532E-04
 -1         9 2.04346E-03 0.00000E+00 1.40183E-04
 -1        10 2.08383E-03 0.00000E+00-1.25592E-03
 -1        11 2.04345E-03 0.00000E+00 1.40202E-04
 -1        12 2.08383E-03 0.00000E+00-1.25591E-03
 -1        13 3.84874E-03 0.00000E+00 1.98710E-04
 -1        14 3.84765E-03 0.00000E+00-1.56238E-03
 -1        15 3.84872E-03 0.00000E+00 1.98723E-04
 -1        16 3.84766E-03 0.00000E+00-1.56238E-03
 -1        17 5.89734E-03 0.00000E+00 2.49263E-04
 -1        18 5.85423E-03 0.00000E+00-1.70526E-03
 -1        19 5.89734E-03 0.00000E+00 2.49268E-04
 -1        20 5.85425E-03 0.00000E+00-1.70526E-03
 -1        21 8.03189E-03 0.00000E+00 2.95428E-04
 -1        22 7.96094E-03 0.00000E+00-1.71301E-03
 -1        23 8.03187E-03 0.00000E+00 2.95421E-04
 -1        24 7.96095E-03 0.00000E+00-1.71301E-03
 -1        25 1.01427E-02 0.00000E+00 3.41264E-04
 -1        26 1.00517E-02 0.00000E+00-1.60772E-03
 -1        27 1.01426E-02 0.00000E+00 3.41250E-04
 -1        28 1.00517E-02 0.00000E+00-1.60774E-03
 -1        29 1.21250E-02 0.00000E+00 3.90109E-04
 -1        30 1.20225E-02 0.00000E+00-1.40288E-03
 -1        31 1.21250E-02 0.00000E+00 3.90097E-04
 -1        32 1.20225E-02 0.00000E+00-1.40289E-03
 -1        33 1.38791E-02 0.00000E+00 4.42613E-04
 -1        34 1.37743E-02 0.00000E+00-1.12025E-03
 -1        35 1.38791E-02 0.00000E+00 4.42605E-04
 -1        36 1.37744E-02 0.00000E+00-1.12025E-03
 -1        37 1.53451E-02 0.00000E+00 4.97872E-04
 -1        38 1.52447E-02 0.00000E+00-7.90427E-04
 -1        39 1.53451E-02 0.00000E+00 4.97866E-04
 -1        40 1.52447E-02 0.00000E+00-7.90429E-04
 -1        41 1.65005E-02 0.00000E+00 5.54956E-04
 -1        42 1.64078E-02 0.00000E+00-4.40047E-04
 -1        43 1.65005E-02 0.00000E+00 5.54955E-04
 -1        44 1.64078E-02 0.00000E+00-4.40049E-04
 -1        45 1.73408E-02 0.00000E+00 6.12901E-04
 -1        46 1.72573E-02 0.00000E+00-8.83378E-05
 -1        47 1.73408E-02 0.00000E+00 6.12901E-04
 -1        48 1.72573E-02 0.00000E+00-8.83502E-05
 -1        49 1.78736E-02 0.00000E+00 6.71218E-04
 -1        50 1.78002E-02 0.00000E+00 2.47973E-04
 -1        51 1.78736E-02 0.00000E+00 6.71211E-04
 -1        52 1.78002E-02 0.00000E+00 2.47967E-04
 -1        53 1.81240E-02 0.00000E+00 7.30063E-04
 -1        54 1.80622E-02 0.00000E+00 5.49429E-04
 -1        55 1.81240E-02 0.00000E+00 7.30064E-04
 -1        56 1.80622E-02 0.00000E+00 5.49472E-04
 -1        57 1.81504E-02 0.00000E+00 7.88359E-04
 -1        58 1.81014E-02 0.00000E+00 7.99794E-04
 -1        59 1.81503E-02 0.00000E+00 7.88357E-04
 -1        60 1.81014E-02 0.00000E+00 7.99831E-04
 -1        61 1.80264E-02 0.00000E+00 8.45202E-04
 -1        62 1.79860E-02 0.00000E+00 1.00407E-03
 -1        63 1.80264E-02 0.00000E+00 8.45172E-04
 -1        64 1.79860E-02 0.00000E+00 1.00405E-03
 -1        65 1.77794E-02 0.00000E+00 9.00321E-04
 -1        66 1.77436E-02 0.00000E+00 1.17809E-03
 -1        67 1.77794E-02 0.00000E+00 9.00302E-04
 -1        68 1.77436E-02 0.00000E+00 1.17812E-03
 -1        69 1.74251E-02 0.00000E+00 9.49677E-04
 -1        70 1.73969E-02 0.00000E+00 1.32640E-03
 -1        71 1.74251E-02 0.00000E+00 9.49651E-04
 -1        72 1.73970E-02 0.00000E+00 1.32640E-03
 -1        73 1.69833E-02 0.00000E+00 9.91245E-04
 -1        74 1.69577E-02 0.00000E+00 1.45224E-03
 -1        75 1.69833E-02 0.00000E+00 9.91236E-04
 -1        76 1.69577E-02 0.00000E+00 1.45225E-03
 -1        77 1.64582E-02 0.00000E+00 1.02379E-03
 -1        78 1.64643E-02 0.00000E+00 1.53212E-03
 -1        79 1.64581E-02 0.00000E+00 1.02381E-03
 -1        80 1.64644E-02 0.00000E+00 1.53216E-03
 -1        81 1.59297E-02 0.00000E+00 1.03369E-03
 -1        82 1.58688E-02 0.00000E+00 1.58824E-03
 -1        83 1.59298E-02 0.00000E+00 1.03371E-03
 -1        84 1.58688E-02 0.00000E+00 1.58821E-03
 -1        85 0.00000E+00 0.00000E+00 0.00000E+00
 -1        86 8.82426E-04 0.00000E+00 8.69043E-04
 -1        87 0.00000E+00 0.00000E+00 0.00000E+00
 -1        88 8.82452E-04 0.00000E+00 8.69049E-04
 -1        89 2.19801E-03 0.00000E+00 1.52732E-03
 -1        90 2.19800E-03 0.00000E+00 1.52732E-03
 -1        91 3.98388E-03 0.00000E+00 1.95245E-03
 -1        92 3.98387E-03 0.00000E+00 1.95246E-03
 -1        93 6.00365E-03 0.00000E+00 2.19973E-03
 -1        94 6.00365E-03 0.00000E+00 2.19973E-03
 -1        95 8.11302E-03 0.00000E+00 2.30288E-03
 -1        96 8.11300E-03 0.00000E+00 2.30287E-03
 -1        97 1.01982E-02 0.00000E+00 2.29117E-03
 -1        98 1.01982E-02 0.00000E+00 2.29117E-03
 -1        99 1.21545E-02 0.00000E+00 2.18413E-03
 -1       100 1.21545E-02 0.00000E+00 2.18411E-03
 -1       101 1.38852E-02 0.00000E+00 2.00615E-03
 -1       102 1.38852E-02 0.00000E+00 2.00613E-03
 -1       103 1.53338E-02 0.00000E+00 1.78670E-03
 -1       104 1.53338E-02 0.00000E+00 1.78670E-03
 -1       105 1.64780E-02 0.00000E+00 1.55019E-03
 -1       106 1.64781E-02 0.00000E+00 1.55020E-03
 -1       107 1.73127E-02 0.00000E+00 1.31425E-03
 -1       108 1.73127E-02 0.00000E+00 1.31427E-03
 -1       109 1.78462E-02 0.00000E+00 1.09488E-03
 -1       110 1.78462E-02 0.00000E+00 1.09491E-03
 -1       111 1.81043E-02 0.00000E+00 9.10566E-04
 -1       112 1.81043E-02 0.00000E+00 9.10550E-04
 -1       113 1.81403E-02 0.00000E+00 7.76198E-04
 -1       114 1.81403E-02 0.00000E+00 7.76162E-04
 -1       115 1.80237E-02 0.00000E+00 6.86498E-04
 -1       116 1.80237E-02 0.00000E+00 6.86513E-04
 -1       117 1.77815E-02 0.00000E+00 6.22335E-04
 -1       118 1.77815E-02 0.00000E+00 6.22333E-04
 -1       119 1.74288E-02 0.00000E+00 5.73749E-04
 -1       120 1.74288E-02 0.00000E+00 5.73749E-04
 -1       121 1.69838E-02 0.00000E+00 5.37436E-04
 -1       122 1.69838E-02 0.00000E+00 5.37459E-04
 -1       123 1.64806E-02 0.00000E+00 5.18444E-04
 -1       124 1.64807E-02 0.00000E+00 5.18416E-04
 -1       125 1.58750E-02 0.00000E+00 5.16929E-04
 -1       126 1.58750E-02 0.00000E+00 5.17018E-04
 -3
    1PSTEP                        38          10           2          
  100CL  110 2.00000E-01         126                     1   10           1
 -4  STRESS      6    1
 -5  SXX         1    4    1    1
 -5  SYY         1    4    2    2
 -5  SZZ         1    4    3    3
 -5  SXY         1    4    1    2
 -5  SYZ         1    4    2    3
 -5  SZX         1    4    3    1
 -1         1-3.29460E+03-3.36243E+03-7.67028E+03-4.45344E-07 1.47447E-05 2.32559E+03
 -1         2 3.73425E+02 3.34002E+02 7.28523E+02 1.50368E-05-2.53333E-05 1.95795E+03
 -1         3 1.78521E+01 1.99499E+02 6.43488E+02-9.54224E-03 6.95184E-03 6.91438E+02
 -1         4-1.03145E+03-2.08337E+03-5.80241E+03 5.90081E-03 2.60400E-03 6.94350E+02
 -1         5-3.29457E+03-3.36241E+03-7.67022E+03-4.46747E-07 1.47447E-05 2.32562E+03
 -1         6 3.73483E+02 3.34064E+02 7.28668E+02 1.50362E-05-2.53332E-05 1.95790E+03
 -1         7 1.78248E+01 1.99510E+02 6.43561E+02-9.54223E-03 6.95184E-03 6.91419E+02
 -1         8-1.03109E+03-2.08319E+03-5.80220E+03 5.90082E-03 2.60400E-03 6.94325E+02
 -1         9 6.35910E+01 2.47284E+02 7.55081E+02-5.92061E-03 1.00080E-02 6.76189E+02
 -1        10-1.14175E+03-1.53824E+03-3.93469E+03-1.71254E-04 6.96079E-03 3.58192E+02
 -1        11 6.36515E+01 2.47308E+02 7.55100E+02-5.92061E-03 1.00080E-02 6.76213E+02
 -1        12-1.14164E+03-1.53820E+03-3.93467E+03-1.71256E-04 6.96079E-03 3.58168E+02
 -1        13 6.59582E+01 2.51824E+02 7.75470E+02-8.86251E-03 6.44547E-03 5.36599E+02
 -1        14-5.20784E+02-7.34469E+02-1.91473E+03 3.83141E-03-1.04434E-03 3.54493E+02
 -1        15 6.59963E+01 2.51821E+02 7.75421E+02-8.86251E-03 6.44547E-03 5.36600E+02
 -1        16-5.20542E+02-7.34382E+02-1.91468E+03 3.83141E-03-1.04434E-03 3.54477E+02
 -1        17 6.78674E+01 2.56351E+02 7.90495E+02 8.80211E-04 2.26069E-03 4.44285E+02
 -1        18-1.79176E+02-1.74956E+02-4.01775E+02 1.06208E-02-1.32504E-04 3.09685E+02
 -1        19 6.79155E+01 2.56346E+02 7.90430E+02 8.80212E-04 2.26069E-03 4.44283E+02
 -1        20-1.78966E+02-1.74862E+02-4.01673E+02 1.06209E-02-1.32505E-04 3.09668E+02
 -1        21 6.61534E+01 2.55486E+02 7.89533E+02-1.11721E-02-3.46928E-03 3.69369E+02
 -1        22 1.22237E+02 2.86929E+02 8.39173E+02 3.77018E-03 9.13071E-05 2.93652E+02
 -1        23 6.62326E+01 2.55494E+02 7.89482E+02-1.11721E-02-3.46927E-03 3.69355E+02
 -1        24 1.22513E+02 2.87030E+02 8.39230E+02 3.77019E-03 9.13066E-05 2.93635E+02
 -1        25 5.76028E+01 2.49246E+02 7.76383E+02-1.02890E-02-7.40339E-03 3.14338E+02
 -1        26 3.56342E+02 6.61041E+02 1.86186E+03-5.14896E-04-7.01785E-03 2.83412E+02
 -1        27 5.76422E+01 2.49255E+02 7.76374E+02-1.02890E-02-7.40340E-03 3.14377E+02
 -1        28 3.56533E+02 6.61113E+02 1.86191E+03-5.14898E-04-7.01785E-03 2.83436E+02
 -1        29 5.05359E+01 2.39426E+02 7.49314E+02 4.93325E-03-6.58788E-03 2.43531E+02
 -1        30 5.44248E+02 9.59689E+02 2.68186E+03 1.16866E-02-3.50402E-03 2.51344E+02
 -1        31 5.05544E+01 2.39441E+02 7.49346E+02 4.93325E-03-6.58788E-03 2.43565E+02
 -1        32 5.44424E+02 9.59782E+02 2.68199E+03 1.16866E-02-3.50402E-03 2.51383E+02
 -1        33 4.76235E+01 2.26074E+02 7.06084E+02-4.22331E-03-4.34834E-03 1.54986E+02
 -1        34 6.80182E+02 1.16221E+03 3.23121E+03 6.48922E-03 2.51951E-04 1.90662E+02
 -1        35 4.76784E+01 2.26106E+02 7.06136E+02-4.22331E-03-4.34834E-03 1.54984E+02
 -1        36 6.80413E+02 1.16231E+03 3.23132E+03 6.48923E-03 2.51951E-04 1.90671E+02
 -1        37 4.55814E+01 2.10521E+02 6.54939E+02-3.65151E-03-3.14812E-03 7.61687E+01
 -1        38 7.55412E+02 1.26315E+03 3.49767E+03 6.05890E-03-1.07956E-03 1.24289E+02
 -1        39 4.56182E+01 2.10547E+02 6.54989E+02-3.65151E-03-3.14812E-03 7.61791E+01
 -1        40 7.55608E+02 1.26323E+03 3.49775E+03 6.05890E-03-1.07956E-03 1.24308E+02
 -1        41 4.47244E+01 1.96031E+02 6.06833E+02 7.26192E-04-4.59541E-04 1.40993E+01
 -1        42 7.79589E+02 1.28481E+03 3.54637E+03 8.92376E-03-1.03806E-03 6.29143E+01
 -1        43 4.47140E+01 1.96035E+02 6.06857E+02 7.26193E-04-4.59541E-04 1.40635E+01
 -1        44 7.79736E+02 1.28486E+03 3.54639E+03 8.92377E-03-1.03806E-03 6.29012E+01
 -1        45 4.79935E+01 1.85975E+02 5.70049E+02-9.64639E-03-2.49891E-05-4.19128E+01
 -1        46 7.65999E+02 1.24743E+03 3.43255E+03 3.25219E-03-6.42413E-03 2.93350E+00
 -1        47 4.80313E+01 1.85984E+02 5.70041E+02-9.64639E-03-2.49867E-05-4.19643E+01
 -1        48 7.66258E+02 1.24754E+03 3.43264E+03 3.25219E-03-6.42413E-03 2.90167E+00
 -1        49 5.09212E+01 1.80312E+02 5.48779E+02 2.52319E-03-3.54067E-03-9.62843E+01
 -1        50 7.09138E+02 1.14874E+03 3.15441E+03 1.14694E-02-3.19851E-03-5.44680E+01
 -1        51 5.09809E+01 1.80339E+02 5.48808E+02 2.52319E-03-3.54067E-03-9.62929E+01
 -1        52 7.09452E+02 1.14895E+03 3.15479E+03 1.14694E-02-3.19851E-03-5.44703E+01
 -1        53 4.99753E+01 1.76263E+02 5.36829E+02 4.39160E-03 2.76105E-04-1.29294E+02
 -1        54 6.13504E+02 9.90826E+02 2.71500E+03 1.76924E-03 2.20999E-02-8.96537E+01
 -1        55 4.98509E+01 1.76216E+02 5.36797E+02 4.39160E-03 2.76103E-04-1.29282E+02
 -1        56 6.13546E+02 9.90901E+02 2.71521E+03 1.76925E-03 2.20999E-02-8.95705E+01
 -1        57 5.74833E+01 1.76240E+02 5.29687E+02-2.37904E-02-9.00069E-04-1.14336E+02
 -1        58 5.22263E+02 8.22946E+02 2.23843E+03-4.29988E-03 1.90641E-02-8.31704E+01
 -1        59 5.74927E+01 1.76205E+02 5.29557E+02-2.37905E-02-9.00079E-04-1.14236E+02
 -1        60 5.22529E+02 8.22979E+02 2.23827E+03-4.29986E-03 1.90641E-02-8.29801E+01
 -1        61 6.10711E+01 1.74340E+02 5.20287E+02 2.44532E-04-1.53240E-02-8.30793E+01
 -1        62 4.43153E+02 6.89147E+02 1.86635E+03 2.50195E-02-9.65314E-03-6.43854E+01
 -1        63 6.12085E+01 1.74377E+02 5.20272E+02 2.44527E-04-1.53240E-02-8.30683E+01
 -1        64 4.43650E+02 6.89346E+02 1.86651E+03 2.50195E-02-9.65313E-03-6.43924E+01
 -1        65 5.12276E+01 1.61656E+02 4.88066E+02-3.31829E-03-9.53908E-03-7.14033E+01
 -1        66 3.71436E+02 5.86063E+02 1.59118E+03-1.81195E-02 1.36176E-02-5.53157E+01
 -1        67 5.08365E+01 1.61494E+02 4.87916E+02-3.31828E-03-9.53907E-03-7.14164E+01
 -1        68 3.71167E+02 5.85972E+02 1.59115E+03-1.81195E-02 1.36176E-02-5.52312E+01
 -1        69 6.21934E+01 1.50219E+02 4.38936E+02-1.84803E-02-1.33184E-02-6.84323E+01
 -1        70 3.52793E+02 5.16255E+02 1.37484E+03 7.11205E-03-7.24689E-04-5.41176E+01
 -1        71 6.21547E+01 1.50215E+02 4.38963E+02-1.84803E-02-1.33184E-02-6.84355E+01
 -1        72 3.53286E+02 5.16440E+02 1.37496E+03 7.11205E-03-7.24682E-04-5.40410E+01
 -1        73 6.55768E+01 1.31277E+02 3.72494E+02-3.87294E-03-4.57852E-03-8.17425E+01
 -1        74 2.32298E+02 3.76353E+02 1.02613E+03-1.82782E-02 3.53158E-03-2.00196E+01
 -1        75 6.55306E+01 1.31317E+02 3.72675E+02-3.87293E-03-4.57852E-03-8.17875E+01
 -1        76 2.32098E+02 3.76329E+02 1.02625E+03-1.82782E-02 3.53156E-03-1.98500E+01
 -1        77 5.18845E+01 8.50379E+01 2.31538E+02-2.48724E-02 1.00587E-02-6.24093E+01
 -1        78 4.23998E+02 3.67613E+02 8.03887E+02 4.78340E-02 2.29928E-02-1.13471E+02
 -1        79 5.20791E+01 8.51613E+01 2.31755E+02-2.48724E-02 1.00587E-02-6.21829E+01
 -1        80 4.25455E+02 3.68195E+02 8.04374E+02 4.78342E-02 2.29928E-02-1.13434E+02
 -1        81 5.61838E+01 5.73320E+01 1.35884E+02 3.42639E-02 1.05386E-02 2.15104E+01
 -1        82-3.42973E+02 8.97782E+00 3.74179E+02-3.35404E-02-1.27561E-02-1.29955E+02
 -1        83 5.61091E+01 5.72996E+01 1.35854E+02 3.42639E-02 1.05386E-02 2.16910E+01
 -1        84-3.44697E+02 8.05274E+00 3.72820E+02-3.35403E-02-1.27560E-02-1.30584E+02
 -1        85 4.09741E+03 4.01182E+03 9.63511E+03 3.57494E-05 3.55257E-05 2.86859E+03
 -1        86 1.02820E+03 2.46889E+03 7.38850E+03 1.31340E-02 3.62738E-03 9.98265E+02
 -1        87 4.09745E+03 4.01185E+03 9.63519E+03 3.57541E-05 3.55256E-05 2.86868E+03
 -1        88 1.02772E+03 2.46869E+03 7.38829E+03 1.31340E-02 3.62738E-03 9.98268E+02
 -1        89 1.19128E+03 1.98629E+03 5.53966E+03-6.26933E-03-3.51491E-04 5.77036E+02
 -1        90 1.19129E+03 1.98629E+03 5.53967E+03-6.26933E-03-3.51491E-04 5.77051E+02
 -1        91 6.32246E+02 1.23681E+03 3.53954E+03-2.63246E-03 4.85203E-03 5.17835E+02
 -1        92 6.32109E+02 1.23675E+03 3.53946E+03-2.63245E-03 4.85203E-03 5.17870E+02
 -1        93 3.00173E+02 6.90067E+02 2.01871E+03 1.62809E-03-2.66667E-03 3.88578E+02
 -1        94 3.00099E+02 6.90003E+02 2.01857E+03 1.62809E-03-2.66666E-03 3.88589E+02
 -1        95-1.78297E+00 2.25629E+02 7.58683E+02-8.53415E-03-7.27675E-03 2.93213E+02
 -1        96-1.84990E+00 2.25595E+02 7.58637E+02-8.53414E-03-7.27675E-03 2.93216E+02
 -1        97-2.56056E+02-1.66312E+02-2.97066E+02-4.94138E-03-4.30535E-03 2.17273E+02
 -1        98-2.56166E+02-1.66363E+02-2.97125E+02-4.94138E-03-4.30536E-03 2.17315E+02
 -1        99-4.58702E+02-4.87862E+02-1.16362E+03 1.14375E-02-8.81537E-03 1.39209E+02
 -1       100-4.58851E+02-4.87935E+02-1.16372E+03 1.14375E-02-8.81537E-03 1.39245E+02
 -1       101-5.95957E+02-7.15466E+02-1.78017E+03 2.24324E-03-7.53298E-03 6.14979E+01
 -1       102-5.96055E+02-7.15485E+02-1.78014E+03 2.24324E-03-7.53298E-03 6.14980E+01
 -1       103-6.71372E+02-8.45780E+02-2.13510E+03 4.28054E-03 4.91373E-04 4.26317E+00
 -1       104-6.71479E+02-8.45793E+02-2.13504E+03 4.28054E-03 4.91373E-04 4.27044E+00
 -1       105-6.95082E+02-8.95481E+02-2.27507E+03 1.11801E-02 4.93939E-03-3.34301E+01
 -1       106-6.95248E+02-8.95521E+02-2.27504E+03 1.11801E-02 4.93938E-03-3.34783E+01
 -1       107-6.72319E+02-8.76285E+02-2.23421E+03-1.70905E-03 1.23692E-02-6.35904E+01
 -1       108-6.72448E+02-8.76317E+02-2.23418E+03-1.70905E-03 1.23692E-02-6.36787E+01
 -1       109-6.09874E+02-7.89613E+02-2.01045E+03 6.11212E-03 1.35677E-02-9.10307E+01
 -1       110-6.10040E+02-7.89737E+02-2.01069E+03 6.11211E-03 1.35676E-02-9.10839E+01
 -1       111-5.17958E+02-6.41837E+02-1.61414E+03 1.47587E-02-8.14763E-03-1.04307E+02
 -1       112-5.18321E+02-6.42076E+02-1.61457E+03 1.47586E-02-8.14762E-03-1.04310E+02
 -1       113-4.08266E+02-4.70693E+02-1.15736E+03-1.20354E-02-1.82946E-02-8.61036E+01
 -1       114-4.08445E+02-4.70730E+02-1.15731E+03-1.20354E-02-1.82946E-02-8.60194E+01
 -1       115-3.21234E+02-3.40065E+02-8.10909E+02 8.11085E-03 7.26512E-03-6.27514E+01
 -1       116-3.21324E+02-3.40060E+02-8.10800E+02 8.11085E-03 7.26512E-03-6.27898E+01
 -1       117-2.68785E+02-2.61961E+02-6.03717E+02 2.02003E-02-1.01183E-03-5.87285E+01
 -1       118-2.69314E+02-2.62208E+02-6.04010E+02 2.02002E-02-1.01183E-03-5.87657E+01
 -1       119-2.12121E+02-1.99227E+02-4.51589E+02 1.28397E-02-3.34964E-04-6.93810E+01
 -1       120-2.12721E+02-1.99452E+02-4.51739E+02 1.28396E-02-3.34975E-04-6.95322E+01
 -1       121-9.94171E+01-1.10123E+02-2.67629E+02-3.80668E-03 1.16970E-02-6.15948E+01
 -1       122-9.94858E+01-1.10189E+02-2.67781E+02-3.80665E-03 1.16969E-02-6.16238E+01
 -1       123-2.43639E+02-1.24830E+02-1.71987E+02 3.54493E-02-1.43598E-02-1.51132E+02
 -1       124-2.44748E+02-1.25218E+02-1.72171E+02 3.54492E-02-1.43598E-02-1.51062E+02
 -1       125 6.34247E+02 2.74236E+02 2.81758E+02-2.75007E-02 4.52657E-02-2.72274E+02
 -1       126 6.36093E+02 2.75328E+02 2.83563E+02-2.75009E-02 4.52660E-02-2.72864E+02
 -3
    1PSTEP                        39          10           2          
  100CL  110 2.00000E-01         126                     1   10           1
 -4  TOSTRAIN    6    1
 -5  EXX         1    4    1    1
 -5  EYY         1    4    2    2
 -5  EZZ         1    4    3    3
 -5  EXY         1    4    1    2
 -5  EYZ         1    4    2    3
 -5  EZX         1    4    3    1
 -1         1-2.21186E-05 4.83441E-18-1.43804E-02 1.32898E-11-2.86301E-13 7.92784E-03
 -1         2-2.27299E-05-2.64414E-16 1.42663E-03 5.57268E-11-2.54890E-13 6.34043E-03
 -1         3-7.77190E-04 1.51407E-15 1.62418E-03-3.14589E-08 2.20832E-08 2.20392E-03
 -1         4 3.28989E-03-9.75873E-17-1.22657E-02 1.89676E-08 8.95949E-09 2.57293E-03
 -1         5-2.21194E-05 4.83441E-18-1.43802E-02 1.32881E-11-2.86301E-13 7.92795E-03
 -1         6-2.27305E-05-2.64414E-16 1.42690E-03 5.57261E-11-2.54890E-13 6.34025E-03
 -1         7-7.77329E-04 1.51407E-15 1.62437E-03-3.14589E-08 2.20832E-08 2.20385E-03
 -1         8 3.29049E-03-9.75873E-17-1.22656E-02 1.89676E-08 8.95949E-09 2.57285E-03
 -1         9-7.60158E-04 2.64572E-15 1.82010E-03-2.02822E-08 3.18674E-08 2.12062E-03
 -1        10 1.18914E-03 7.26092E-16-7.82180E-03-1.26533E-09 2.28890E-08 1.44177E-03
 -1        11-7.60044E-04 2.64572E-15 1.82009E-03-2.02822E-08 3.18674E-08 2.12070E-03
 -1        12 1.18936E-03 7.26092E-16-7.82187E-03-1.26533E-09 2.28890E-08 1.44170E-03
 -1        13-7.45590E-04 1.89413E-15 1.83401E-03-2.95968E-08 1.98822E-08 1.64976E-03
 -1        14 5.95728E-04-6.32205E-16-3.77111E-03 1.25637E-08-2.95247E-09 1.31976E-03
 -1        15-7.45459E-04 1.89413E-15 1.83386E-03-2.95968E-08 1.98822E-08 1.64977E-03
 -1        16 5.96234E-04-6.32205E-16-3.77125E-03 1.25637E-08-2.95246E-09 1.31973E-03
 -1        17-7.31121E-04-5.88340E-16 1.84217E-03 2.55003E-09 7.42584E-09 1.34063E-03
 -1        18-9.84625E-05 1.89271E-15-6.58597E-04 3.45161E-08 9.18892E-10 1.03284E-03
 -1        19-7.30947E-04-5.88340E-16 1.84197E-03 2.55003E-09 7.42583E-09 1.34064E-03
 -1        20-9.80789E-05 1.89271E-15-6.58575E-04 3.45161E-08 9.18892E-10 1.03280E-03
 -1        21-7.13314E-04 2.11457E-15 1.82139E-03-3.58046E-08-1.26913E-08 1.09633E-03
 -1        22-6.11330E-04-7.02096E-16 1.85724E-03 1.22309E-08 7.88410E-10 8.53354E-04
 -1        23-7.13080E-04 2.11457E-15 1.82120E-03-3.58046E-08-1.26913E-08 1.09631E-03
 -1        24-6.10753E-04-7.02096E-16 1.85710E-03 1.22309E-08 7.88407E-10 8.53329E-04
 -1        25-7.04819E-04 2.72140E-15 1.78522E-03-3.24324E-08-2.52778E-08 9.22591E-04
 -1        26-1.05888E-03 3.01273E-16 3.93153E-03-7.44602E-10-2.27242E-08 7.20304E-04
 -1        27-7.04731E-04 2.72140E-15 1.78517E-03-3.24324E-08-2.52778E-08 9.22725E-04
 -1        28-1.05850E-03 3.01273E-16 3.93146E-03-7.44603E-10-2.27242E-08 7.20399E-04
 -1        29-6.76777E-04 6.90439E-16 1.71330E-03 1.68230E-08-2.07652E-08 7.04340E-04
 -1        30-1.40696E-03 2.60811E-15 5.58078E-03 3.83547E-08-9.92731E-09 5.57828E-04
 -1        31-6.76776E-04 6.90439E-16 1.71336E-03 1.68230E-08-2.07652E-08 7.04451E-04
 -1        32-1.40670E-03 2.60811E-15 5.58092E-03 3.83548E-08-9.92731E-09 5.57959E-04
 -1        33-6.21289E-04 2.90750E-16 1.59858E-03-1.32633E-08-1.45187E-08 4.33578E-04
 -1        34-1.60680E-03 3.47319E-16 6.66422E-03 2.10472E-08 1.47809E-09 3.53109E-04
 -1        35-6.21211E-04 2.90750E-16 1.59864E-03-1.32633E-08-1.45187E-08 4.33571E-04
 -1        36-1.60639E-03 3.47319E-16 6.66427E-03 2.10472E-08 1.47809E-09 3.53150E-04
 -1        37-5.60762E-04 1.43076E-16 1.46971E-03-1.15951E-08-1.05096E-08 1.95129E-04
 -1        38-1.67561E-03 4.40813E-16 7.17379E-03 1.97691E-08-2.95549E-09 1.70198E-04
 -1        39-5.60727E-04 1.43076E-16 1.46978E-03-1.15951E-08-1.05096E-08 1.95161E-04
 -1        40-1.67523E-03 4.40813E-16 7.17376E-03 1.97691E-08-2.95549E-09 1.70267E-04
 -1        41-5.06376E-04-5.65203E-16 1.35214E-03 2.38790E-09-1.46769E-09 9.21667E-06
 -1        42-1.65720E-03 1.36698E-15 7.24991E-03 2.90422E-08-2.77359E-09 2.44467E-05
 -1        43-5.06418E-04-5.65203E-16 1.35220E-03 2.38790E-09-1.46769E-09 9.09853E-06
 -1        44-1.65688E-03 1.36698E-15 7.24981E-03 2.90422E-08-2.77359E-09 2.44126E-05
 -1        45-4.57186E-04 7.76723E-16 1.25952E-03-3.13440E-08-5.61806E-10-1.59474E-04
 -1        46-1.57331E-03 1.35987E-16 7.00261E-03 1.08646E-08-2.05549E-08-1.10428E-04
 -1        47-4.57085E-04 7.76723E-16 1.25946E-03-3.13440E-08-5.61808E-10-1.59639E-04
 -1        48-1.57280E-03 1.35987E-16 7.00256E-03 1.08647E-08-2.05548E-08-1.10523E-04
 -1        49-4.26212E-04-3.97570E-16 1.20464E-03 8.29516E-09-1.14338E-08-3.25443E-04
 -1        50-1.43374E-03 1.49929E-15 6.43196E-03 3.73282E-08-9.98845E-09-2.40760E-04
 -1        51-4.26105E-04-3.97570E-16 1.20465E-03 8.29517E-09-1.14337E-08-3.25470E-04
 -1        52-1.43339E-03 1.49929E-15 6.43251E-03 3.73282E-08-9.98845E-09-2.40768E-04
 -1        53-4.14939E-04-1.89630E-15 1.17678E-03 1.42636E-08 9.73374E-10-4.24429E-04
 -1        54-1.22978E-03 7.46025E-15 5.53884E-03 5.52721E-09 7.13573E-08-3.12042E-04
 -1        55-4.15194E-04-1.89630E-15 1.17683E-03 1.42636E-08 9.73363E-10-4.24393E-04
 -1        56-1.22989E-03 7.46025E-15 5.53927E-03 5.52726E-09 7.13573E-08-3.11774E-04
 -1        57-3.89947E-04 7.41620E-15 1.15263E-03-7.73182E-08-2.86148E-09-3.69948E-04
 -1        58-9.80146E-04 2.40227E-15 4.55720E-03-1.38942E-08 6.16436E-08-2.65983E-04
 -1        59-3.89796E-04 7.41620E-15 1.15232E-03-7.73182E-08-2.86147E-09-3.69625E-04
 -1        60-9.79385E-04 2.40227E-15 4.55659E-03-1.38941E-08 6.16435E-08-2.65370E-04
 -1        61-3.72206E-04 1.93899E-15 1.12724E-03 6.17449E-10-4.97319E-08-2.64368E-04
 -1        62-8.02598E-04 6.33741E-15 3.79671E-03 8.11623E-08-3.14581E-08-1.92650E-04
 -1        63-3.71877E-04 1.93899E-15 1.12707E-03 6.17459E-10-4.97319E-08-2.64333E-04
 -1        64-8.01631E-04 6.33741E-15 3.79660E-03 8.11624E-08-3.14581E-08-1.92674E-04
 -1        65-3.63198E-04-1.80835E-16 1.06352E-03-1.09813E-08-3.08953E-08-2.23491E-04
 -1        66-7.00679E-04 3.52577E-15 3.24599E-03-5.86006E-08 4.44109E-08-1.56406E-04
 -1        67-3.63943E-04-1.80835E-16 1.06356E-03-1.09813E-08-3.08953E-08-2.23529E-04
 -1        68-7.01250E-04 3.52577E-15 3.24617E-03-5.86006E-08 4.44109E-08-1.56127E-04
 -1        69-2.90526E-04 7.21105E-15 9.41420E-04-6.04019E-08-4.27787E-08-2.12582E-04
 -1        70-5.34625E-04-3.44353E-15 2.77621E-03 2.30960E-08-2.49973E-09-1.49712E-04
 -1        71-2.90638E-04 7.21105E-15 9.41516E-04-6.04019E-08-4.27786E-08-2.12590E-04
 -1        72-5.33623E-04-3.44353E-15 2.77602E-03 2.30960E-08-2.49973E-09-1.49472E-04
 -1        73-2.19364E-04 4.24346E-16 7.88299E-04-1.27309E-08-1.47516E-08-2.55900E-04
 -1        74-4.69398E-04-4.61820E-16 2.10278E-03-5.92608E-08 1.20059E-08-4.12068E-05
 -1        75-2.19648E-04 4.24346E-16 7.88756E-04-1.27309E-08-1.47516E-08-2.56039E-04
 -1        76-4.69956E-04-4.61820E-16 2.10323E-03-5.92608E-08 1.20059E-08-4.06472E-05
 -1        77-1.11473E-04-1.48683E-15 4.79922E-04-8.04722E-08 3.35011E-08-1.96710E-04
 -1        78 1.74766E-04 2.64021E-14 1.42049E-03 1.56190E-07 7.29942E-08-3.54891E-04
 -1        79-1.11224E-04-1.48683E-15 4.80208E-04-8.04722E-08 3.35011E-08-1.95975E-04
 -1        80 1.77606E-04 2.64021E-14 1.42017E-03 1.56190E-07 7.29942E-08-3.54806E-04
 -1        81-4.32352E-06 8.53383E-15 2.53725E-04 1.11692E-07 3.30498E-08 7.31192E-05
 -1        82-1.15517E-03-6.31619E-15 1.19363E-03-1.09529E-07-4.02419E-08-3.96130E-04
 -1        83-4.45461E-06 8.53383E-15 2.53719E-04 1.11692E-07 3.30498E-08 7.37075E-05
 -1        84-1.15782E-03-6.31619E-15 1.19228E-03-1.09529E-07-4.02417E-08-3.98162E-04
 -1        85-2.33412E-05-3.39924E-16 1.76638E-02 6.50178E-11-3.07792E-13 8.82409E-03
 -1        86-4.84427E-03 1.34845E-15 1.56250E-02 4.24324E-08 1.21913E-08 2.80669E-03
 -1        87-2.33415E-05-3.39924E-16 1.76639E-02 6.50238E-11-3.07792E-13 8.82434E-03
 -1        88-4.84515E-03 1.34845E-15 1.56250E-02 4.24323E-08 1.21913E-08 2.80669E-03
 -1        89-2.70945E-03-9.60231E-17 1.13791E-02-2.03024E-08-1.70881E-09 1.43760E-03
 -1        90-2.70945E-03-9.60231E-17 1.13791E-02-2.03024E-08-1.70881E-09 1.43765E-03
 -1        91-2.08691E-03 3.29495E-16 7.47209E-03-9.12608E-09 1.52860E-08 1.32135E-03
 -1        92-2.08715E-03 3.29495E-16 7.47205E-03-9.12608E-09 1.52860E-08 1.32146E-03
 -1        93-1.36378E-03-2.16336E-16 4.36351E-03 5.64362E-09-8.41689E-09 1.02872E-03
 -1        94-1.36382E-03-2.16336E-16 4.36327E-03 5.64362E-09-8.41689E-09 1.02876E-03
 -1        95-8.15298E-04 2.32631E-15 1.79505E-03-2.67306E-08-2.46846E-08 8.45932E-04
 -1        96-8.15407E-04 2.32631E-15 1.79501E-03-2.67306E-08-2.46846E-08 8.45941E-04
 -1        97-3.50763E-04 2.50476E-16-3.69358E-04-1.54921E-08-1.46095E-08 7.08800E-04
 -1        98-3.50966E-04 2.50476E-16-3.69374E-04-1.54921E-08-1.46095E-08 7.08932E-04
 -1        99 5.34060E-05 3.61320E-15-2.16500E-03 3.82384E-08-2.73777E-08 5.35122E-04
 -1       100 5.31491E-05 3.61320E-15-2.16506E-03 3.82384E-08-2.73777E-08 5.35234E-04
 -1       101 3.64220E-04 8.80918E-16-3.45902E-03 8.06779E-09-2.43610E-08 3.21693E-04
 -1       102 3.63964E-04 8.80918E-16-3.45884E-03 8.06778E-09-2.43610E-08 3.21680E-04
 -1       103 5.54086E-04-9.92441E-17-4.21103E-03 1.38710E-08 1.96281E-09 1.37395E-04
 -1       104 5.53780E-04-9.92441E-17-4.21079E-03 1.38710E-08 1.96281E-09 1.37404E-04
 -1       105 6.44452E-04 2.18718E-15-4.51556E-03 3.60384E-08 1.68451E-08-6.65802E-06
 -1       106 6.44049E-04 2.18718E-15-4.51533E-03 3.60384E-08 1.68451E-08-6.82856E-06
 -1       107 6.58936E-04 2.09941E-15-4.44718E-03-6.12582E-09 4.03076E-08-1.36878E-04
 -1       108 6.58633E-04 2.09941E-15-4.44701E-03-6.12583E-09 4.03076E-08-1.37174E-04
 -1       109 5.81311E-04 2.78719E-15-3.99569E-03 1.95303E-08 4.44675E-08-2.59462E-04
 -1       110 5.81176E-04 2.78719E-15-3.99609E-03 1.95303E-08 4.44675E-08-2.59634E-04
 -1       111 3.99905E-04 3.19123E-15-3.17643E-03 4.80788E-08-2.64132E-08-3.28149E-04
 -1       112 3.99500E-04 3.19123E-15-3.17706E-03 4.80788E-08-2.64132E-08-3.28161E-04
 -1       113 2.00251E-04 5.82039E-15-2.23752E-03-3.92063E-08-5.96068E-08-2.81700E-04
 -1       114 1.99793E-04 5.82039E-15-2.23722E-03-3.92063E-08-5.96068E-08-2.81424E-04
 -1       115 5.81863E-05-1.14825E-15-1.53076E-03 2.64569E-08 2.35561E-08-2.09704E-04
 -1       116 5.78762E-05-1.14825E-15-1.53042E-03 2.64569E-08 2.35561E-08-2.09827E-04
 -1       117-2.57167E-05 6.12191E-15-1.10893E-03 6.56549E-08-3.67032E-09-1.97439E-04
 -1       118-2.66364E-05 6.12191E-15-1.10908E-03 6.56549E-08-3.67032E-09-1.97556E-04
 -1       119-4.64282E-05-1.08675E-15-8.16648E-04 4.17231E-08-1.43307E-09-2.31760E-04
 -1       120-4.76539E-05-1.08675E-15-8.16396E-04 4.17231E-08-1.43309E-09-2.32241E-04
 -1       121 3.06696E-05-5.42562E-16-5.07915E-04-1.20188E-08 3.81428E-08-2.05380E-04
 -1       122 3.06610E-05-5.42562E-16-5.08193E-04-1.20188E-08 3.81428E-08-2.05478E-04
 -1       123-3.97713E-04 5.82230E-15-1.43195E-04 1.14714E-07-4.78176E-08-4.88964E-04
 -1       124-4.00055E-04 5.82230E-15-1.42535E-04 1.14714E-07-4.78177E-08-4.88702E-04
 -1       125 1.14652E-03 2.58002E-14 4.28380E-05-8.75413E-08 1.47946E-07-8.94667E-04
 -1       126 1.14892E-03 2.58002E-14 4.51882E-05-8.75415E-08 1.47946E-07-8.96572E-04
 -3
    1PSTEP                        40          10           2          
  100CL  110 2.00000E-01         126                     1   10           1
 -4  ERROR       1    1
 -5  STR(%)      1    1    0    0
 -1         1 7.10640E+01
 -1         2 7.10640E+01
 -1         3 7.34489E+01
 -1         4 7.34489E+01
 -1         5 7.10640E+01
 -1         6 7.10640E+01
 -1         7 7.34489E+01
 -1         8 7.34489E+01
 -1         9 7.79110E+01
 -1        10 7.79110E+01
 -1        11 7.79110E+01
 -1        12 7.79110E+01
 -1        13 8.19451E+01
 -1        14 8.19451E+01
 -1        15 8.19451E+01
 -1        16 8.19451E+01
 -1        17 8.19451E+01
 -1        18 8.19451E+01
 -1        19 8.19451E+01
 -1        20 8.19451E+01
 -1        21 3.77611E+01
 -1        22 3.10895E+01
 -1        23 3.77611E+01
 -1        24 3.10895E+01
 -1        25 9.77255E+01
 -1        26 3.28079E+01
 -1        27 9.77255E+01
 -1        28 3.28079E+01
 -1        29 9.77255E+01
 -1        30 4.09352E+01
 -1        31 9.77255E+01
 -1        32 4.09352E+01
 -1        33 9.05148E+01
 -1        34 4.41542E+01
 -1        35 9.05148E+01
 -1        36 4.41542E+01
 -1        37 8.64224E+01
 -1        38 4.53864E+01
 -1        39 8.64224E+01
 -1        40 4.53864E+01
 -1        41 7.95373E+01
 -1        42 4.58987E+01
 -1        43 7.95373E+01
 -1        44 4.58987E+01
 -1        45 8.06513E+01
 -1        46 4.64328E+01
 -1        47 8.06513E+01
 -1        48 4.64328E+01
 -1        49 8.53239E+01
 -1        50 4.64328E+01
 -1        51 8.53239E+01
 -1        52 4.64328E+01
 -1        53 8.80479E+01
 -1        54 4.55388E+01
 -1        55 8.80479E+01
 -1        56 4.55388E+01
 -1        57 9.42037E+01
 -1        58 4.26130E+01
 -1        59 9.42037E+01
 -1        60 4.26130E+01
 -1        61 9.97935E+01
 -1        62 3.87881E+01
 -1        63 9.97935E+01
 -1        64 3.87881E+01
 -1        65 1.04307E+02
 -1        66 3.57628E+01
 -1        67 1.04307E+02
 -1        68 3.57628E+01
 -1        69 1.04307E+02
 -1        70 3.38498E+01
 -1        71 1.04307E+02
 -1        72 3.38498E+01
 -1        73 1.00180E+02
 -1        74 3.38498E+01
 -1        75 1.00180E+02
 -1        76 3.38498E+01
 -1        77 1.00180E+02
 -1        78 7.09939E+01
 -1        79 1.00180E+02
 -1        80 7.09939E+01
 -1        81 7.09939E+01
 -1        82 7.09939E+01
 -1        83 7.09939E+01
 -1        84 7.09939E+01
 -1        85 5.89632E+01
 -1        86 5.89632E+01
 -1        87 5.89632E+01
 -1        88 5.89632E+01
 -1        89 5.04792E+01
 -1        90 5.04792E+01
 -1        91 4.60474E+01
 -1        92 4.60474E+01
 -1        93 3.46237E+01
 -1        94 3.46237E+01
 -1        95 3.77611E+01
 -1        96 3.77611E+01
 -1        97 9.77255E+01
 -1        98 9.77255E+01
 -1        99 9.77255E+01
 -1       100 9.77255E+01
 -1       101 9.05148E+01
 -1       102 9.05148E+01
 -1       103 8.64224E+01
 -1       104 8.64224E+01
 -1       105 7.95373E+01
 -1       106 7.95373E+01
 -1       107 8.06513E+01
 -1       108 8.06513E+01
 -1       109 8.53239E+01
 -1       110 8.53239E+01
 -1       111 8.80479E+01
 -1       112 8.80479E+01
 -1       113 9.42037E+01
 -1       114 9.42037E+01
 -1       115 9.97935E+01
 -1       116 9.97935E+01
 -1       117 1.04307E+02
 -1       118 1.04307E+02
 -1       119 1.04307E+02
 -1       120 1.04307E+02
 -1       121 1.00180E+02
 -1       122 1.00180E+02
 -1       123 1.00180E+02
 -1       124 1.00180E+02
 -1       125 5.25384E+01
 -1       126 5.25384E+01
 -3
 9999
